30

C -0.05591  -0.391827  4.839825
O -0.86614  -0.381571  3.685672
C -0.372744  0.406458  2.621554
C -1.388768  0.296479  1.48849 
O -0.879521  1.060342  0.411704
C -1.654177  1.02517  -0.774778
C -0.907711  1.862354 -1.830834
O -0.744336  1.145647 -3.038095
C  0.505331  0.521044 -3.242226
C  0.75583  -0.629245 -2.259403
O  1.977698 -1.222212 -2.655831
C  2.402004 -2.295544 -1.846096
H 0.056129 0.618036 5.258802
H -0.553421 -1.031153  5.571549
H  0.94238  -0.798026  4.624223
H 0.607687 0.039636 2.278085
H -0.263188  1.459374  2.925561
H -2.364993  0.683194  1.819388
H -1.511094 -0.758892  1.199287
H -2.65784   1.437592 -0.585205
H -1.772997 -0.008098 -1.133136
H -1.467774  2.778409 -2.05479 
H  0.066514  2.161527 -1.418577
H  0.486054  0.122162 -4.26183 
H  1.326918  1.249722 -3.163803
H  0.825193 -0.250728 -1.227472
H -0.069886 -1.357067 -2.311253
H  1.672866 -3.117977 -1.857257
H  3.349162 -2.649797 -2.257464
H  2.556747 -1.975007 -0.806072
