30

C  0.558807 -0.671143  4.122022
O -0.495403 -0.376664  3.232961
C -0.104374  0.304925  2.058306
C -1.368875  0.510312  1.228858
O -0.969726  1.160916  0.038037
C -1.962828  1.2578   -0.975041
C -1.366769  1.915886 -2.155827
O -0.573839  1.049117 -2.946052
C  0.694992  0.681002 -2.431909
C  0.668391 -0.762803 -1.922298
O  1.988721 -1.066353 -1.511376
C  2.146241 -2.338141 -0.925947
H 1.053374 0.245194 4.473591
H  0.119635 -1.192203  4.974883
H  1.310274 -1.319644  3.649834
H  0.623846 -0.287353  1.481733
H 0.350856 1.278685 2.297698
H -2.094104  1.121144  1.788475
H -1.829305 -0.465327  1.009389
H -2.815814  1.852293 -0.605233
H -2.3363    0.254364 -1.236273
H -2.166857  2.266523 -2.82069 
H -0.77544   2.789813 -1.837347
H  1.421653  0.754877 -3.25145 
H  1.00887   1.353076 -1.623041
H -0.032695 -0.859834 -1.080977
H  0.339962 -1.438381 -2.727923
H  1.869821 -3.139667 -1.625699
H  3.20088  -2.440338 -0.662184
H  1.536018 -2.438077 -0.016498
