30

C  0.50005  -0.618173  4.12894 
O -0.563381 -0.3608    3.241575
C -0.192608  0.306377  2.035235
C -1.30449   0.474928  1.286469
O -0.928896  1.129518  0.072388
C -1.942624  1.233686 -0.910806
C -1.338488  1.925371 -2.139072
O -0.574465  1.055493 -2.942664
C  0.702897  0.676318 -2.457973
C  0.677012 -0.766487 -1.945635
O  2.010388 -1.089673 -1.596448
C  2.171663 -2.350951 -0.989843
H 0.982956 0.31342  4.456349
H  0.074828 -1.126184  4.99677 
H  1.258819 -1.265876  3.667058
H  0.57512  -0.297055  1.511038
H 0.294392 1.268573 2.288799
H -2.072993  1.084584  1.800764
H -1.79066  -0.488889  1.039365
H -2.785182  1.834395 -0.531318
H -2.319037  0.23746  -1.189005
H -2.153584  2.288915 -2.775686
H -0.735858  2.783815 -1.805756
H  1.410144  0.74223  -3.294857
H  1.041344  1.347399 -1.658101
H  0.015293 -0.852394 -1.07197 
H  0.301061 -1.43725  -2.734312
H  1.842627 -3.162029 -1.654946
H  3.236218 -2.470279 -0.778322
H  1.607465 -2.416441 -0.048018
