30

C  0.578617 -0.679458  4.117735
O -0.470801 -0.384703  3.224117
C -0.09591   0.31082   2.053101
C -1.36822   0.502068  1.232463
O -0.984765  1.164465  0.04234 
C -1.98001   1.247264 -0.963526
C -1.355071  1.928619 -2.186943
O -0.562734  1.056022 -2.959807
C  0.699901  0.685625 -2.431082
C  0.664167 -0.758797 -1.924209
O  1.97556  -1.060672 -1.484707
C  2.123844 -2.335738 -0.903752
H 1.063766 0.236931 4.48242 
H  0.136079 -1.211931  4.961636
H  1.338867 -1.317915  3.645631
H  0.638154 -0.265827  1.468003
H 0.345573 1.289968 2.296653
H -2.098904  1.099584  1.799118
H -1.815681 -0.478904  1.010346
H -2.835344  1.844986 -0.609175
H -2.341445  0.244223 -1.236349
H -2.158365  2.274374 -2.847932
H -0.769566  2.798041 -1.85152 
H  1.436924  0.760318 -3.241183
H  1.003888  1.355472 -1.616696
H -0.055143 -0.857651 -1.098606
H  0.354564 -1.434049 -2.737504
H  1.867217 -3.133613 -1.615096
H  3.172288 -2.435748 -0.615635
H  1.49256  -2.443773 -0.009821
