30

C  0.58555  -0.657923  4.123035
O -0.483964 -0.37416   3.236395
C -0.103639  0.311898  2.061425
C -1.373704  0.507629  1.238021
O -0.985063  1.161676  0.044804
C -1.979315  1.244647 -0.962037
C -1.353853  1.926407 -2.184971
O -0.56208   1.054152 -2.958771
C  0.701835  0.684899 -2.432439
C  0.667985 -0.758213 -1.921661
O  1.985014 -1.064594 -1.502418
C  2.135323 -2.335319 -0.912656
H 1.041189 0.182229 4.434629
H  0.146304 -1.187547  4.972737
H  1.318824 -1.324483  3.642887
H  0.626285 -0.274121  1.480254
H 0.344884 1.289564 2.297937
H -2.100989  1.112875  1.800832
H -1.827466 -0.471424  1.020354
H -2.834884  1.842377 -0.608294
H -2.340579  0.241645 -1.235278
H -2.157127  2.273035 -2.845546
H -0.767953  2.795358 -1.849   
H  1.436365  0.756883 -3.245031
H  1.008346  1.357426 -1.621156
H -0.038298 -0.852541 -1.084445
H  0.342765 -1.433674 -2.728667
H  1.860617 -3.137871 -1.611886
H  3.188103 -2.439878 -0.642495
H  1.519534 -2.430951 -0.00654 
