30

C  0.595545 -0.698517  4.0842  
O -0.469472 -0.407103  3.207154
C -0.102306  0.325396  2.055441
C -1.373805  0.514796  1.232798
O -0.989446  1.174319  0.041343
C -1.98233   1.251051 -0.967341
C -1.354743  1.926296 -2.192824
O -0.559184  1.050422 -2.958672
C  0.701014  0.68184  -2.422778
C  0.662893 -0.761205 -1.912151
O  1.971699 -1.061405 -1.463865
C  2.117221 -2.335578 -0.880176
H 1.062859 0.220301 4.46535 
H  0.174803 -1.260865  4.919976
H  1.365244 -1.307658  3.589459
H  0.644043 -0.22352   1.459575
H 0.320849 1.304827 2.32814 
H -2.10672   1.112469  1.796377
H -1.818968 -0.467622  1.012416
H -2.838945  1.850052 -0.618298
H -2.342388  0.24632  -1.235718
H -2.156579  2.267409 -2.857965
H -0.771217  2.798279 -1.860583
H  1.442039  0.754425 -3.229414
H  1.000841  1.354041 -1.608818
H -0.061332 -0.858153 -1.090652
H  0.358405 -1.438738 -2.725481
H  1.866012 -3.134614 -1.592147
H  3.163828 -2.434288 -0.585007
H  1.480149 -2.442978  0.009682
