30

C  0.51975  -0.684077  4.169   
O -0.523283 -0.375529  3.271538
C -0.1119    0.285722  2.092355
C -1.368473  0.515916  1.257611
O -0.950254  1.150582  0.064797
C -1.938989  1.26018  -0.942832
C -1.359008  1.916474 -2.198659
O -0.590258  1.031469 -2.981333
C  0.68937   0.67383  -2.485551
C  0.673157 -0.757995 -1.943055
O  2.008053 -1.06374  -1.584191
C  2.178451 -2.314689 -0.958976
H 1.032501 0.224716 4.514019
H  0.064907 -1.186784  5.024643
H  1.259185 -1.353597  3.707273
H  0.602633 -0.329863  1.522896
H 0.367181 1.249709 2.324581
H -2.08103   1.146722  1.811208
H -1.851059 -0.44973   1.041466
H -2.779404  1.875801 -0.580257
H -2.329998  0.263412 -1.202492
H -2.190731  2.240404 -2.834117
H -0.766821  2.798034 -1.908048
H  1.398716  0.728393 -3.321446
H  1.019466  1.364207 -1.698685
H  0.009714 -0.830335 -1.069438
H  0.304296 -1.447913 -2.718446
H  1.858496 -3.138082 -1.613289
H  3.24335  -2.421628 -0.742611
H  1.611994 -2.371611 -0.017943
