30

C -0.01025  -1.218109  4.123769
O -0.435316 -0.113347  3.357784
C -0.648753 -0.389292  1.988519
C -1.093302  0.918925  1.341295
O -1.302209  0.644008 -0.029145
C -1.699126  1.756708 -0.80407 
C -1.84622   1.333864 -2.284548
O -1.010623  0.276628 -2.676721
C  0.392552  0.469262 -2.589522
C  0.986768 -0.723438 -1.840315
O  2.375394 -0.478567 -1.717859
C  3.070546 -1.418821 -0.932285
H  0.948063 -1.613383  3.758047
H  0.114855 -0.865011  5.149152
H -0.754953 -2.02636   4.107939
H -1.427659 -1.156382  1.854903
H  0.276679 -0.746667  1.50843 
H -0.31431   1.686     1.475765
H -2.019569  1.275745  1.818143
H -0.951298  2.56273  -0.711089
H -2.664685  2.154893 -0.452748
H -2.866121  0.965981 -2.450946
H -1.693115  2.226034 -2.914758
H  0.819586  0.527504 -3.601202
H  0.643572  1.393245 -2.053924
H  0.511982 -0.805488 -0.851645
H  0.79632  -1.654087 -2.397025
H  3.000729 -2.429486 -1.3593  
H  4.117424 -1.109065 -0.913488
H  2.683049 -1.444026  0.096862
