30

C  0.06503  -0.099132  4.424509
O -0.080318 -0.808464  3.214195
C  0.194752 -0.089134  2.028534
C -1.121334  0.261823  1.324546
O -0.775607  0.98187   0.156202
C -1.835479  1.213596 -0.756789
C -1.269457  1.992818 -1.95018 
O -0.595161  1.172507 -2.876245
C  0.691426  0.701069 -2.511645
C  0.633441 -0.778433 -2.121123
O  1.972734 -1.187543 -1.914918
C  2.119865 -2.499573 -1.422369
H -0.631452  0.74852   4.486801
H -0.158412 -0.801896  5.229913
H 1.090596 0.274768 4.548314
H  0.800625 -0.725516  1.371742
H 0.748284 0.836238 2.238029
H -1.756221  0.870693  1.987442
H -1.665459 -0.661033  1.07276 
H -2.630424  1.807573 -0.277597
H -2.26696   0.261403 -1.100547
H -2.10126   2.449792 -2.499037
H -0.608629  2.789388 -1.575892
H  1.345801  0.810168 -3.386136
H  1.110677  1.287181 -1.683634
H  0.040942 -0.911989 -1.204771
H  0.161719 -1.360214 -2.928821
H  1.699976 -3.23962  -2.118418
H  3.190753 -2.680272 -1.309752
H  1.629564 -2.616588 -0.445092
