30

C  1.053426 -0.975546  3.477952
O -0.046899 -0.784121  2.616895
C -0.017047  0.428501  1.884319
C -1.331942  0.507448  1.107477
O -1.117473  1.398431  0.029283
C -2.039315  1.340716 -1.045335
C -1.354964  1.935899 -2.283851
O -0.498148  1.022454 -2.934287
C  0.701556  0.668793 -2.263303
C  0.610044 -0.772739 -1.750363
O  1.671138 -0.954843 -0.831802
C  1.653536 -2.193315 -0.154831
H  1.105411 -0.185857  4.240654
H  0.910073 -1.940014  3.969182
H  2.00081  -0.991299  2.921231
H 0.824565 0.436847 1.17526 
H 0.084363 1.287983 2.564781
H -2.150909  0.858366  1.754002
H -1.587851 -0.497647  0.738839
H -2.943234  1.924869 -0.807761
H -2.338862  0.302462 -1.249715
H -2.120753  2.206457 -3.019827
H -0.808058  2.843565 -1.987196
H  1.528213  0.755429 -2.980541
H  0.899843  1.340598 -1.419324
H -0.361267 -0.930335 -1.258712
H  0.688024 -1.484965 -2.586826
H  1.721198 -3.03476  -0.858597
H  2.523343 -2.207783  0.505171
H  0.741189 -2.305594  0.447245
