30

C  1.108676 -0.896335  3.016686
O -0.027663 -0.64589   2.218896
C -0.479555  0.695115  2.248416
C -1.645913  0.821711  1.266206
O -1.140206  1.381308  0.067313
C -1.996149  1.299709 -1.059131
C -1.223132  1.830593 -2.273067
O -0.395342  0.858222 -2.866329
C  0.80105   0.511645 -2.18784 
C  0.641924 -0.807858 -1.424357
O  1.952895 -1.291034 -1.185974
C  2.000193 -2.507625 -0.4776  
H  0.916352 -0.65558   4.071898
H  1.332476 -1.961017  2.928082
H  1.974397 -0.314142  2.672486
H 0.324564 1.383504 1.946564
H -0.804611  0.967945  3.265746
H -2.432426  1.469516  1.686157
H -2.075076 -0.173688  1.08037 
H -2.898791  1.912015 -0.89989 
H -2.30528   0.25908  -1.238833
H -1.939966  2.130733 -3.046486
H -0.639424  2.712048 -1.966619
H  1.576771  0.37475  -2.952066
H  1.11597   1.313212 -1.506641
H  0.110354 -0.659118 -0.474249
H  0.069098 -1.518513 -2.041329
H  1.52426  -3.320824 -1.044547
H  3.05389  -2.748401 -0.321284
H  1.500673 -2.42108   0.497443
