30

C 0.455997 0.174266 4.352799
O -0.586331  0.229782  3.405335
C -0.254087 -0.281046  2.128158
C -1.439688 -0.010868  1.194314
O -0.98006   0.835818  0.155034
C -1.929043  1.139548 -0.852107
C -1.2443    2.044068 -1.883693
O -0.426648  1.33238  -2.784878
C  0.808502  0.840827 -2.291922
C  0.737004 -0.675279 -2.08877 
O  2.038782 -1.091422 -1.719358
C  2.16429  -2.468969 -1.453292
H 1.328357 0.755026 4.021754
H 0.067931 0.604633 5.277961
H  0.772027 -0.86172   4.541386
H -0.041837 -1.360715  2.190103
H 0.639263 0.22382  1.729669
H -2.245237  0.478529  1.762425
H -1.831349 -0.950568  0.773965
H -2.792806  1.668885 -0.418324
H -2.289103  0.220167 -1.338961
H -2.01401   2.531719 -2.493177
H -0.665893  2.815968 -1.353955
H  1.579327  1.061111 -3.041851
H  1.085441  1.329404 -1.349105
H  0.010892 -0.925209 -1.301651
H  0.417519 -1.161729 -3.023988
H  1.90965  -3.073235 -2.335702
H  3.207113 -2.649048 -1.184325
H  1.518303 -2.776141 -0.617826
