30

C 0.469677 0.045671 4.356062
O -0.575827  0.13506   3.414571
C -0.214452 -0.219093  2.093187
C -1.423688  0.056551  1.191578
O -0.981751  0.888841  0.133264
C -1.940198  1.160836 -0.874117
C -1.265936  2.034334 -1.938833
O -0.453337  1.296681 -2.823577
C  0.787878  0.825755 -2.325733
C  0.724255 -0.683102 -2.072221
O  2.028174 -1.079769 -1.689221
C  2.155897 -2.442237 -1.355269
H 1.303957 0.710265 4.091089
H 0.057456 0.35286  5.319098
H  0.849273 -0.982853  4.437383
H  0.081342 -1.279395  2.044542
H 0.634415 0.39162  1.748585
H -2.204499  0.563382  1.779047
H -1.842057 -0.880361  0.792106
H -2.801127  1.701773 -0.449077
H -2.302707  0.226605 -1.329731
H -2.041744  2.500674 -2.557196
H -0.685539  2.823976 -1.438205
H  1.55147   1.024604 -3.08892 
H  1.070855  1.345556 -1.401568
H -2.870000e-04 -9.098860e-01 -1.276779e+00
H  0.40693  -1.202741 -2.990149
H  1.896449 -3.090128 -2.204688
H  3.200312 -2.608403 -1.083557
H  1.51482  -2.707076 -0.501648
