30

C -1.28842   0.633435  5.74715 
O -1.21506   0.029718  4.474937
C -0.917084  0.915442  3.414666
C -0.892368  0.077473  2.139845
O -0.582798  0.960812  1.078778
C -0.523935  0.3643   -0.20269 
C -0.222469  1.496096 -1.192924
O -0.482388  1.101067 -2.524028
C  0.592732  0.628214 -3.305336
C  0.835488 -0.872516 -3.102669
O  1.79643  -1.249199 -4.068438
C  2.132025 -2.618899 -4.070483
H -2.077361  1.397859  5.78231 
H -1.523187 -0.158009  6.461467
H -0.332311  1.09907   6.02483 
H 0.062439 1.396659 3.563824
H -1.682369  1.702917  3.329172
H -1.873814 -0.396574  1.983953
H -0.132317 -0.714501  2.227624
H -1.483174 -0.107669 -0.466475
H  0.26095  -0.407932 -0.233708
H -0.89072   2.336054 -0.966812
H  0.815958  1.837157 -1.073969
H  0.317003  0.796957 -4.352621
H  1.516592  1.186099 -3.091656
H  1.206831 -1.075307 -2.085285
H -0.10754  -1.423698 -3.244528
H  1.254011 -3.245369 -4.281421
H  2.873929 -2.762957 -4.8582  
H  2.562935 -2.926698 -3.107293
