30

C  0.510559 -0.729673  4.158403
O -0.5214   -0.502229  3.221858
C -0.143729  0.220811  2.068132
C -1.406872  0.394782  1.22925 
O -1.023704  1.098194  0.062741
C -2.007557  1.180839 -0.954466
C -1.394692  1.933655 -2.141557
O -0.561696  1.123303 -2.938834
C  0.711245  0.784952 -2.413662
C  0.729872 -0.67482  -1.951742
O  2.058763 -0.948648 -1.547714
C  2.254641 -2.22964  -0.994719
H  1.096849 -1.620631  3.893713
H 1.179747 0.136033 4.238316
H  0.035065 -0.901778  5.127652
H  0.613993 -0.325749  1.484316
H 0.267389 1.206427 2.336191
H -2.164395  0.956176  1.797645
H -1.821254 -0.592873  0.975067
H -2.890614  1.730263 -0.590198
H -2.324978  0.175668 -1.27076 
H -2.2032    2.275762 -2.798116
H -0.846214  2.810038 -1.764257
H  1.448432  0.912012 -3.217024
H  0.985479  1.441452 -1.577994
H  0.031362 -0.822295 -1.115682
H  0.424809 -1.333443 -2.780258
H  2.00346  -3.021067 -1.715156
H  3.311692 -2.306215 -0.731981
H  1.646958 -2.371307 -0.089143
