30

C 0.569886 0.522879 4.076892
O -0.51349   0.525603  3.175876
C -0.498075 -0.519827  2.224266
C -1.584397 -0.233083  1.189687
O -1.041996  0.653015  0.2282  
C -1.930175  1.065747 -0.794606
C -1.186851  2.071574 -1.681755
O -0.3195    1.455988 -2.606827
C  0.886428  0.908362 -2.10084 
C  0.802115 -0.620096 -2.055835
O  2.098384 -1.083134 -1.723844
C  2.217856 -2.48319  -1.62791 
H 1.52916  0.615332 3.548598
H 0.437817 1.384041 4.734689
H  0.587146 -0.394526  4.682934
H -0.694145 -1.489635  2.711359
H  0.478349 -0.572884  1.718651
H -2.455132  0.220459  1.687031
H -1.90157  -1.173842  0.710701
H -2.817835  1.551467 -0.358079
H -2.261246  0.205279 -1.396614
H -1.920006  2.627795 -2.277504
H -0.639137  2.777081 -1.039018
H  1.695773  1.195584 -2.784633
H  1.114366  1.299934 -1.101359
H  0.068609 -0.946072 -1.304147
H  0.486709 -1.002681 -3.039511
H  1.973442 -2.973325 -2.581233
H  3.25682  -2.698769 -1.370224
H  1.560706 -2.889076 -0.844924
