30

C  0.580304 -0.679484  4.107049
O -0.479849 -0.390898  3.226168
C -0.103443  0.305479  2.055258
C -1.374054  0.500444  1.232748
O -0.987295  1.162998  0.043772
C -1.980353  1.247516 -0.964138
C -1.352512  1.92984  -2.185536
O -0.558562  1.057895 -2.957457
C  0.702725  0.686516 -2.426191
C  0.6654   -0.758617 -1.921468
O  1.976438 -1.062635 -1.482388
C  2.123266 -2.338726 -0.903333
H 1.072488 0.259167 4.472354
H  0.153951 -1.211358  4.959256
H  1.342382 -1.309011  3.627259
H  0.630303 -0.271957  1.470798
H 0.339603 1.283206 2.301186
H -2.10425  1.09918  1.79875
H -1.823454 -0.47928   1.009025
H -2.836031  1.84542  -0.610963
H -2.341828  0.244985 -1.238785
H -2.154346  2.276227 -2.84796 
H -0.767696  2.798932 -1.848052
H  1.44171   0.762059 -3.234425
H  1.004913  1.355274 -1.610246
H -0.054026 -0.857986 -1.096026
H  0.355054 -1.4322   -2.735864
H  1.865565 -3.135248 -1.615801
H  3.171629 -2.440429 -0.615513
H  1.49198  -2.447312 -0.009458
