30

C -0.865667  0.398498  5.611887
O -1.23026  -0.024114  4.316943
C -0.725266  0.776662  3.267644
C -1.234552  0.163505  1.96658 
O -0.719154  0.956821  0.914272
C -1.09121   0.545178 -0.386937
C -0.452647  1.545666 -1.357278
O -0.597645  1.097303 -2.691803
C  0.54725   0.608177 -3.354269
C  0.903375 -0.818483 -2.918297
O  1.952112 -1.238817 -3.768312
C  2.418942 -2.548389 -3.532404
H -1.236379  1.411794  5.82119 
H -1.320144 -0.302434  6.314649
H 0.225395 0.386807 5.744241
H 0.376219 0.784567 3.27013 
H -1.080927  1.815388  3.355355
H -2.335485  0.164224  1.957777
H -0.885576 -0.877504  1.882101
H -2.185479  0.544511 -0.504692
H -0.721821 -0.471641 -0.594234
H -0.968928  2.510721 -1.273231
H  0.603674  1.687984 -1.091994
H  0.305799  0.599033 -4.422828
H  1.412629  1.268882 -3.194934
H  1.226488 -0.834452 -1.865217
H  0.022391 -1.471442 -3.022888
H  1.620788 -3.28983  -3.677883
H  3.218331 -2.735148 -4.251989
H  2.817756 -2.653466 -2.513558
