30

C  0.589563 -0.68943   4.092665
O -0.481276 -0.391073  3.226146
C -0.111782  0.317045  2.056005
C -1.380136  0.512994  1.233602
O -0.990457  1.168367  0.041503
C -1.982802  1.250104 -0.967387
C -1.353711  1.927255 -2.191023
O -0.560243  1.051741 -2.959329
C  0.702034  0.68388  -2.428014
C  0.666371 -0.757986 -1.913884
O  1.980139 -1.060748 -1.482097
C  2.128367 -2.330948 -0.890638
H 1.076525 0.225622 4.457966
H  0.170706 -1.236041  4.939757
H  1.343321 -1.316237  3.594907
H  0.617424 -0.291971  1.497165
H 0.341137 1.289071 2.301418
H -2.107291  1.118073  1.796885
H -1.834411 -0.465471  1.014539
H -2.838104  1.85015  -0.616964
H -2.34502   0.246876 -1.238466
H -2.155036  2.271823 -2.855028
H -0.768325  2.797136 -1.856588
H  1.439349  0.75423  -3.238228
H  1.005714  1.358123 -1.617116
H -0.047276 -0.85131  -1.082784
H  0.349578 -1.436281 -2.72186 
H  1.862134 -3.134364 -1.592138
H  3.178906 -2.432664 -0.610859
H  1.504611 -2.427968  0.009864
