30

C  1.073151 -0.982199  3.169947
O -0.010155 -0.725364  2.303135
C -0.353346  0.644116  2.187868
C -1.548846  0.754     1.235995
O -1.091007  1.3541    0.037181
C -1.993886  1.315421 -1.054683
C -1.261383  1.859871 -2.287634
O -0.455412  0.893968 -2.921091
C  0.754501  0.528162 -2.277013
C  0.609694 -0.825189 -1.57519 
O  1.912975 -1.215512 -1.183025
C  1.949714 -2.364732 -0.3677  
H  0.858935 -0.632497  4.189873
H  1.219932 -2.063711  3.185563
H  1.992816 -0.496961  2.815312
H 0.489942 1.222013 1.780301
H -0.609126  1.055126  3.17782 
H -2.348492  1.364774  1.685102
H -1.948829 -0.251446  1.038365
H -2.876671  1.941227 -0.844604
H -2.331345  0.285556 -1.244837
H -2.003773  2.170376 -3.032238
H -0.66596   2.736631 -1.990462
H  1.525244  0.439827 -3.053386
H  1.068305  1.293802 -1.555509
H -0.045497 -0.741517 -0.69718 
H  0.170551 -1.557931 -2.270951
H  1.585604 -3.251294 -0.906729
H  2.991544 -2.522432 -0.080737
H  1.34083  -2.228182  0.536529
