30

C  0.549099 -0.660594  4.141199
O -0.508631 -0.367554  3.255291
C -0.126474  0.29882   2.078055
C -1.385394  0.50801   1.246589
O -0.983329  1.145327  0.049113
C -1.977125  1.239691 -0.957359
C -1.349727  1.926668 -2.176401
O -0.566401  1.05534  -2.959387
C  0.70264   0.684327 -2.447004
C  0.673093 -0.75686  -1.930615
O  2.       -1.071085 -1.550026
C  2.15575  -2.33191  -0.940974
H 1.052161 0.255562 4.480278
H  0.112125 -1.170916  5.0015  
H  1.292144 -1.31808   3.668304
H  0.647941 -0.362043  1.452805
H 0.362328 1.260062 2.293012
H -2.102427  1.132031  1.802884
H -1.857826 -0.463725  1.036666
H -2.829504  1.839431 -0.599405
H -2.343397  0.240195 -1.23667 
H -2.152726  2.284035 -2.831653
H -0.75714   2.789012 -1.835211
H  1.426846  0.751426 -3.269191
H  1.020913  1.359513 -1.642348
H -0.008271 -0.843411 -1.072279
H  0.319268 -1.432395 -2.725457
H  1.84663  -3.144448 -1.613828
H  3.216095 -2.444704 -0.705977
H  1.571352 -2.401727 -0.011892
