30

C 0.925449 0.575286 2.283572
O -0.098278 -0.146073  2.945477
C -0.900857 -0.972068  2.1466  
C -1.913883 -0.221114  1.268973
O -1.225675  0.613769  0.352102
C -1.993333  1.078611 -0.744213
C -1.13482   2.061334 -1.549535
O -0.165337  1.424111 -2.350381
C  1.002588  0.95517  -1.699234
C  0.979423 -0.570538 -1.570898
O  2.129696 -0.921773 -0.82227 
C  2.280126 -2.303144 -0.585266
H 0.531176 1.471305 1.790227
H 1.643841 0.878037 3.04989 
H  1.435362 -0.048324  1.538899
H -1.477684 -1.597291  2.841561
H -0.302244 -1.649133  1.513896
H -2.57731   0.386924  1.904263
H -2.525678 -0.963325  0.732868
H -2.896559  1.600145 -0.38859 
H -2.301417  0.238066 -1.384799
H -1.787193  2.610723 -2.238711
H -0.663986  2.776443 -0.858201
H  1.867883  1.25257  -2.306012
H  1.106406  1.402072 -0.702162
H  0.065271 -0.897118 -1.055327
H  1.001527 -1.035862 -2.56867 
H  2.366567 -2.86387  -1.526599
H  3.196649 -2.429899 -0.005741
H  1.432298 -2.705035 -0.0117  
