30

C  0.573945 -0.671543  4.104619
O -0.481253 -0.362455  3.232808
C -0.105108  0.328363  2.056676
C -1.37594   0.515811  1.232839
O -0.990001  1.168931  0.03839 
C -1.983986  1.244991 -0.969354
C -1.359095  1.922185 -2.195121
O -0.564707  1.047834 -2.963825
C  0.699012  0.683064 -2.433834
C  0.666921 -0.758344 -1.91815 
O  1.982528 -1.059072 -1.490571
C  2.134206 -2.328067 -0.897407
H 1.164908 0.147885 4.533466
H  0.125087 -1.216129  4.941685
H  1.292778 -1.348439  3.612696
H  0.629016 -0.253422  1.476903
H 0.33684  1.307761 2.295354
H -2.106434  1.118659  1.794079
H -1.824759 -0.466008  1.017212
H -2.841028  1.842491 -0.618853
H -2.342844  0.239907 -1.238025
H -2.162583  2.263702 -2.858077
H -0.775438  2.79409  -1.862938
H  1.435054  0.753851 -3.245157
H  1.002488  1.358898 -1.624185
H -0.043721 -0.851871 -1.0845  
H  0.348182 -1.437724 -2.724449
H  1.866486 -3.133011 -1.596589
H  3.185811 -2.428112 -0.621065
H  1.513642 -2.424229  0.005393
