30

C  0.885409 -0.804738  3.729367
O -0.264127 -0.515093  2.966601
C -0.049028  0.386863  1.898207
C -1.371759  0.499484  1.143699
O -1.113588e+00  1.292639e+00 -8.390000e-04
C -2.086698  1.267209 -1.036599
C -1.355787  1.953437 -2.206253
O -0.489378  1.082057 -2.898319
C  0.712583  0.702843 -2.247728
C  0.627538 -0.757666 -1.791147
O  1.728193 -0.98331  -0.92909 
C  1.853773 -2.311059 -0.470139
H 1.295095 0.101758 4.196834
H  0.582326 -1.505366  4.50995 
H  1.668113 -1.268214  3.111967
H 0.730634 0.01379  1.216347
H 0.260005 1.375591 2.272128
H -2.140596  0.961785  1.781653
H -1.71476  -0.506013  0.856173
H -2.98511   1.833973 -0.750462
H -2.370076  0.238852 -1.296856
H -2.086677  2.300183 -2.94764 
H -0.809962  2.822353 -1.811589
H  1.5345    0.81418  -2.967159
H  0.918428  1.343295 -1.381694
H -0.32164  -0.932431 -1.263469
H  0.665717 -1.431562 -2.661216
H  2.015995 -3.008106 -1.304271
H  2.719621 -2.338393  0.19447 
H  0.961264 -2.628344  0.087095
