30

C  0.593574 -0.684575  4.10662 
O -0.468405 -0.391966  3.225896
C -0.090789  0.307082  2.059187
C -1.384076  0.506258  1.22642 
O -0.995538  1.167928  0.039582
C -1.985672  1.248808 -0.971807
C -1.354804  1.929597 -2.192486
O -0.556916  1.057293 -2.959952
C  0.702395  0.687582 -2.422814
C  0.66417  -0.75734  -1.917554
O  1.972968 -1.059255 -1.47038 
C  2.118619 -2.335771 -0.891921
H 1.079126 0.233288 4.466589
H  0.164572 -1.220679  4.955304
H  1.350173 -1.318673  3.623243
H  0.63764  -0.268132  1.467173
H 0.347333 1.286776 2.303059
H -2.108334  1.105188  1.798417
H -1.829729 -0.475339  1.00687 
H -2.843372  1.84608  -0.622583
H -2.344642  0.245146 -1.245502
H -2.154881  2.273446 -2.858341
H -0.772432  2.800241 -1.854766
H  1.444993  0.763508 -3.227699
H  1.000155  1.357039 -1.605831
H -0.060121 -0.857357 -1.096463
H  0.359747 -1.43178  -2.733474
H  1.867347 -3.131926 -1.607092
H  3.165259 -2.435637 -0.597263
H  1.481648e+00 -2.446829e+00 -2.414000e-03
