30

C  0.588716 -0.68077   4.101614
O -0.477186 -0.388725  3.225684
C -0.10508   0.31025   2.055765
C -1.376503  0.503763  1.233125
O -0.989061  1.165127  0.043727
C -1.981241  1.247833 -0.965198
C -1.352697  1.929144 -2.186801
O -0.557804  1.056658 -2.957145
C  0.703057  0.686198 -2.42425 
C  0.665565 -0.758338 -1.917841
O  1.975992 -1.061189 -1.47613 
C  2.12238  -2.336425 -0.895084
H 1.076178 0.237293 4.458518
H  0.163592 -1.216013  4.95281 
H  1.342944 -1.315487  3.615326
H  0.621056 -0.267365  1.461551
H 0.339884 1.287277 2.299745
H -2.108382  1.102412  1.797175
H -1.824313 -0.476844  1.0103  
H -2.83762   1.845617 -0.613504
H -2.341851  0.244765 -1.239   
H -2.154098  2.274568 -2.850255
H -0.768468  2.798786 -1.849727
H  1.442825  0.760994 -3.231839
H  1.004281  1.355943 -1.608757
H -0.055232 -0.857009 -1.093509
H  0.356925 -1.433094 -2.731913
H  1.866223 -3.134034 -1.606892
H  3.170297 -2.437289 -0.605346
H  1.489630e+00 -2.444046e+00 -2.128000e-03
