30

C  0.55475  -0.636341  4.160521
O -0.477578 -0.376044  3.233207
C -0.073424  0.276445  2.055532
C -1.353158  0.469181  1.234626
O -0.975923  1.147149  0.051375
C -1.972521  1.236763 -0.952431
C -1.351364  1.933481 -2.169123
O -0.556191  1.072397 -2.952158
C  0.703761  0.69305  -2.423284
C  0.664493 -0.760076 -1.942197
O  1.971481 -1.068982 -1.494529
C  2.117803 -2.359432 -0.947955
H 1.046277 0.293309 4.479897
H  0.09145  -1.113818  5.025987
H  1.312147 -1.310375  3.737713
H  0.665106 -0.196014  1.392092
H 0.338163 1.273211 2.298562
H -2.089398  1.053439  1.807497
H -1.791597 -0.513578  1.001748
H -2.829705  1.827536 -0.590948
H -2.330708  0.235385 -1.235569
H -2.156381  2.283245 -2.825851
H -0.76885   2.801469 -1.824829
H  1.445367  0.781747 -3.227786
H  1.003229  1.348499 -1.595702
H -0.06319  -0.87418  -1.125907
H  0.363699 -1.420927 -2.770487
H  1.875563 -3.137755 -1.685529
H  3.162484 -2.462765 -0.647604
H  1.474224 -2.496019 -0.06685 
