30

C -0.297317 -0.144527  5.125452
O -0.993455 -0.265036  3.90505 
C -0.480138  0.521579  2.849189
C -1.369356  0.25978   1.637206
O -0.843299  1.030303  0.573448
C -1.526986  0.900137 -0.660177
C -0.787946  1.784008 -1.680918
O -0.720672  1.150545 -2.944711
C  0.508677  0.559419 -3.305701
C  0.820866 -0.694733 -2.480035
O  1.997054 -1.247405 -3.03832 
C  2.463644 -2.4143   -2.398937
H -0.321959  0.888581  5.499681
H -0.797531 -0.798269  5.842467
H  0.751003 -0.457778  5.020729
H 0.559435 0.241775 2.615749
H -0.502996  1.592537  3.105408
H -2.406266  0.55382   1.862086
H -1.356767 -0.813188  1.389812
H -2.576642  1.215493 -0.553771
H -1.519137 -0.146599 -1.00027 
H -1.325251  2.730789 -1.81804 
H  0.216144  2.009606 -1.296829
H  0.415689  0.276595 -4.35962 
H  1.337349  1.276987 -3.205029
H  0.978858 -0.434018 -1.42161 
H -0.018245 -1.405944 -2.543978
H  1.720472 -3.22253  -2.449137
H  3.368337 -2.725092 -2.924972
H  2.706443 -2.222534 -1.344202
