30

C  0.556766 -0.641081  4.154704
O -0.481525 -0.376812  3.23574 
C -0.082592  0.282416  2.058652
C -1.359119  0.47617   1.236026
O -0.977671  1.148127  0.050715
C -1.973372  1.237863 -0.954023
C -1.35066   1.93248  -2.171119
O -0.556876  1.069447 -2.953331
C  0.704105  0.691356 -2.426072
C  0.665815 -0.759987 -1.939537
O  1.976003 -1.06995  -1.502046
C  2.123155 -2.356491 -0.946622
H 1.045779 0.287532 4.48088 
H  0.100593 -1.129544  5.017822
H  1.315133 -1.30721   3.720901
H  0.65543  -0.217946  1.41455 
H 0.338097 1.274787 2.299732
H -2.093465  1.065869  1.805822
H -1.801468 -0.505596  1.006498
H -2.830038  1.830134 -0.593788
H -2.332584  0.236595 -1.23623 
H -2.155038  2.283049 -2.828217
H -0.766792  2.799801 -1.82745 
H  1.443616  0.776622 -3.232857
H  1.005997  1.349903 -1.601794
H -0.055023 -0.869783 -1.116642
H  0.35667  -1.423048 -2.762975
H  1.870542 -3.139842 -1.67534 
H  3.170452 -2.461331 -0.656057
H  1.488083 -2.483531 -0.057921
