30

C  1.008597 -1.09549   3.361334
O -0.042163 -0.825883  2.459735
C -0.079189  0.509797  1.983292
C -1.375896  0.672725  1.180676
O -1.04881   1.356294 -0.015539
C -2.017178  1.320005 -1.048948
C -1.360317  1.873699 -2.32017 
O -0.527215  0.937038 -2.965341
C  0.694855  0.6086   -2.32226 
C  0.608476 -0.789396 -1.702304
O  1.764649 -0.956267 -0.904072
C  1.790438 -2.158939 -0.166898
H  0.929273 -0.472439  4.26342 
H  0.92509  -2.146941  3.643089
H  1.989862 -0.922637  2.898105
H 0.78303  0.711288 1.32999 
H -0.056141  1.20582   2.836245
H -2.132045  1.232301  1.752932
H -1.780896 -0.325275  0.954458
H -2.887755  1.942611 -0.785009
H -2.36345   0.290416 -1.223964
H -2.14425   2.12987  -3.042256
H -0.799977  2.785504 -2.062891
H  1.487824  0.625706 -3.081134
H  0.94289   1.337551 -1.540802
H -0.300533 -0.872531 -1.089445
H  0.560664 -1.55544  -2.492542
H  1.801105 -3.035135 -0.83093 
H  2.706036 -2.149798  0.428264
H  0.923036 -2.233053  0.502986
