30

C 0.545233 0.507483 4.121696
O -0.528821  0.509807  3.209352
C -0.471721 -0.499029  2.221085
C -1.5654   -0.217511  1.192141
O -1.030486  0.665849  0.2235  
C -1.925345  1.070861 -0.796697
C -1.187951  2.069799 -1.696482
O -0.327357  1.44718  -2.623175
C  0.881327  0.901536 -2.121659
C  0.79579  -0.626518 -2.06642 
O  2.093072 -1.088627 -1.737208
C  2.212051 -2.488257 -1.634287
H 1.506071 0.651521 3.608078
H 0.378302 1.33764  4.810666
H  0.586548 -0.431801  4.691965
H -0.636248 -1.491114  2.674727
H  0.507273 -0.507626  1.718092
H -2.4335    0.236263  1.693618
H -1.884589 -1.159674  0.71741 
H -2.810146  1.559886 -0.358086
H -2.260306  0.205788 -1.389859
H -1.925117  2.621866 -2.291136
H -0.635501  2.779888 -1.062891
H  1.686468  1.183619 -2.81251 
H  1.11622   1.299161 -1.126181
H  0.06533  -0.946926 -1.309389
H  0.475603 -1.015144 -3.046169
H  1.963526 -2.983274 -2.584009
H  3.251903 -2.703112 -1.37961 
H  1.557782 -2.889533 -0.84654 
