30

C  0.948294 -0.896735  3.616247
O -0.228308 -0.579254  2.907844
C -0.068177  0.425209  1.92381 
C -1.392335  0.550761  1.182084
O -1.094385  1.352962  0.044195
C -2.032448  1.32281  -1.01557 
C -1.359175  1.935833 -2.250631
O -0.499853  1.035078 -2.915277
C  0.702878  0.679656 -2.251687
C  0.620321 -0.768732 -1.757715
O  1.710732 -0.966157 -0.876201
C  1.823368 -2.27594  -0.365062
H  1.338387 -0.023148  4.157338
H  0.687771 -1.676731  4.33442 
H  1.731343 -1.273154  2.942585
H 0.704497 0.143474 1.193479
H 0.219399 1.383904 2.384536
H -2.268821  0.974172  1.690901
H -1.685837 -0.46263   0.854452
H -2.928711  1.909793 -0.755542
H -2.343361  0.29021  -1.234561
H -2.130591  2.209483 -2.979517
H -0.816239  2.843645 -1.946991
H  1.52752   0.776721 -2.970002
H  0.901368  1.342544 -1.400967
H -0.334871 -0.933745 -1.237389
H  0.672172 -1.465699 -2.608694
H  1.994938 -3.005064 -1.169368
H  2.67907  -2.281365  0.313161
H  0.921064 -2.567902  0.190141
