30

C  0.624922 -0.673153  4.064986
O -0.450594 -0.397657  3.195634
C -0.098602  0.320453  2.030285
C -1.378683  0.49304   1.217331
O -1.013413  1.171742  0.030222
C -2.008436  1.237425 -0.979676
C -1.347856  1.937794 -2.176002
O -0.539411  1.073591 -2.941285
C  0.710416  0.693429 -2.389747
C  0.660457 -0.757701 -1.903575
O  1.954707 -1.061701 -1.417236
C  2.088627 -2.350161 -0.86265 
H 1.092434 0.252529 4.428904
H  0.215492 -1.226072  4.912585
H  1.391811 -1.285671  3.570058
H  0.645242 -0.232466  1.434976
H 0.322091 1.306102 2.28387 
H -2.118311  1.071791  1.791727
H -1.807531 -0.49492   0.989824
H -2.874356  1.822864 -0.633372
H -2.346481  0.230375 -1.263587
H -2.127615  2.30321  -2.854932
H -0.767207  2.795619 -1.805231
H  1.465645  0.777839 -3.181986
H  0.997361  1.351359 -1.559718
H -0.090059 -0.869695 -1.107945
H  0.3847   -1.423119 -2.736909
H  1.869972 -3.131344 -1.604544
H  3.124453 -2.449631 -0.531868
H  1.420236e+00 -2.485871e+00 -1.190000e-04
