30

C  1.370226 -0.18251   2.942366
O 0.43302  0.082944 1.925653
C -0.906712  0.125648  2.36245 
C -1.833678  0.636326  1.234733
O -1.072296  1.157939  0.170603
C -1.806843  1.496671 -0.990123
C -0.808305  1.88154  -2.093184
O -0.500839  0.784084 -2.928493
C  0.700847  0.080306 -2.684853
C  0.65573  -0.748941 -1.396606
O  1.698935 -1.704278 -1.507256
C  1.855639 -2.516669 -0.367482
H  1.210524 -1.174225  3.389946
H  2.357386 -0.153759  2.477604
H 1.32286  0.575099 3.737736
H -0.992049  0.798002  3.233647
H -1.242528 -0.875352  2.682686
H -2.510109  1.406425  1.642467
H -2.46006  -0.197291  0.872504
H -2.479118  2.345126 -0.78137 
H -2.415247  0.644384 -1.329426
H -1.268002  2.646565 -2.732827
H  0.097097  2.30347  -1.636042
H  0.825604 -0.600539 -3.534245
H  1.559363  0.769092 -2.658816
H  0.808245 -0.117197 -0.512184
H -0.322847 -1.246636 -1.308986
H  0.956002 -3.120108 -0.177855
H  2.699818 -3.182549 -0.559464
H  2.067344 -1.91357   0.526836
