30

C  0.078365 -0.53699   4.665339
O -0.794832 -0.445244  3.56178 
C -0.322431  0.35377   2.496488
C -1.406085  0.336506  1.422301
O -0.913813  1.101742  0.338548
C -1.720705  1.094065 -0.827473
C -0.972681  1.896489 -1.909383
O -0.748582  1.117262 -3.068317
C  0.514236  0.495333 -3.183216
C  0.73188  -0.59697  -2.129302
O  1.96578  -1.210545 -2.451288
C  2.365308 -2.229389 -1.562658
H 0.267187 0.450609 5.109057
H -0.409518 -1.175487  5.404223
H  1.039916 -0.98551   4.378402
H  0.615165 -0.050953  2.082573
H -0.138548  1.387935  2.827671
H -2.33816   0.767742  1.818739
H -1.605115 -0.701226  1.112906
H -2.699785  1.55047  -0.612147
H -1.892561  0.065475 -1.177148
H -1.580763  2.754663 -2.221467
H -0.028159  2.273401 -1.494528
H  0.542723  0.041436 -4.179354
H  1.324939  1.236744 -3.11007 
H  0.768668 -0.16099  -1.119004
H -0.092133 -1.327604 -2.166991
H  1.638702 -3.054028 -1.546296
H  3.326425 -2.604747 -1.919364
H  2.484587 -1.843957 -0.540004
