30

C  0.56673  -0.664896  4.110327
O -0.496283 -0.383271  3.228093
C -0.121901  0.307974  2.050334
C -1.358069  0.496209  1.243931
O -0.974725  1.157573  0.04986 
C -1.972592  1.245319 -0.952563
C -1.350327  1.928498 -2.176349
O -0.562392  1.056399 -2.954215
C  0.702437  0.684054 -2.43222 
C  0.667651 -0.760444 -1.925486
O  1.983083 -1.066955 -1.501527
C  2.132772 -2.340755 -0.918249
H 1.050365 0.257471 4.46144 
H  0.139861 -1.194158  4.964404
H  1.324666 -1.301612  3.63239 
H  0.619299 -0.273919  1.477431
H 0.329283 1.283086 2.297313
H -2.096582  1.096376  1.799932
H -1.814168 -0.480765  1.015921
H -2.825447  1.844149 -0.594039
H -2.337283  0.243837 -1.226907
H -2.155325  2.277394 -2.833607
H -0.762055  2.796011 -1.840823
H  1.435153  0.757722 -3.2463  
H  1.011747  1.35353  -1.619503
H -0.042157 -0.857268 -1.091475
H  0.346216 -1.434189 -2.735434
H  1.862939 -3.13977  -1.623395
H  3.184399 -2.444967 -0.643527
H  1.512717 -2.442634 -0.015734
