30

C  0.949417 -0.937023  3.640828
O -0.202407 -0.575051  2.910734
C 0.00898  0.426511 1.947213
C -1.438479  0.58607   1.136185
O -1.160472  1.396309  0.021576
C -2.069225  1.323293 -1.064412
C -1.376016  1.924209 -2.294307
O -0.496239  1.021535 -2.928648
C  0.696231  0.684433 -2.237427
C  0.619389 -0.763306 -1.741776
O  1.718081 -0.959079 -0.870514
C  1.841147 -2.270351 -0.365376
H  1.354311 -0.081816  4.199728
H  0.649136 -1.716179  4.344113
H  1.734166 -1.330222  2.979118
H 0.772098 0.142853 1.211271
H 0.264984 1.392923 2.401111
H -2.174526  1.042879  1.809727
H -1.766624 -0.420038  0.846037
H -2.983099  1.896904 -0.840045
H -2.352656  0.280143 -1.267905
H -2.134762  2.180513 -3.042539
H -0.847299  2.841067 -1.992951
H  1.535573  0.78815  -2.937622
H  0.867947  1.352737 -1.385143
H -0.331108 -0.929466 -1.213039
H  0.664577 -1.45958  -2.593668
H  2.007768 -2.99564  -1.174144
H  2.70352  -2.274681  0.30432 
H  0.945595 -2.568097  0.197572
