30

C  1.368208 -0.185435  2.942847
O 0.435173 0.099741 1.9277  
C -0.90754   0.118156  2.356825
C -1.833728  0.643823  1.234786
O -1.071443  1.155539  0.166606
C -1.807333  1.502548 -0.990726
C -0.80961   1.878569 -2.097376
O -0.508142  0.77574  -2.927852
C  0.694426  0.072462 -2.687325
C  0.657969 -0.747033 -1.39252 
O  1.69796  -1.705713 -1.505105
C  1.862787 -2.510314 -0.361025
H  1.213311 -1.189766  3.363183
H  2.357891 -0.137133  2.485124
H 1.310377 0.550532 3.757627
H -1.006424  0.769166  3.242602
H -1.233073 -0.893928  2.652228
H -2.496084  1.424075  1.646552
H -2.474964 -0.17997   0.876334
H -2.470255  2.357539 -0.7787  
H -2.425438  0.65659  -1.328344
H -1.267936  2.6424   -2.739485
H  0.098289  2.299223 -1.644083
H  0.812276 -0.615051 -3.53232 
H  1.553895  0.760419 -2.672858
H  0.819408 -0.109292 -0.513962
H -0.320995 -1.241609 -1.292957
H  0.962725 -3.108729 -0.157962
H  2.702364 -3.180989 -0.556483
H  2.085914 -1.901561  0.526689
