30

C  0.555776 -0.683226  4.151606
O -0.457963 -0.36775   3.226502
C -0.08185   0.318418  2.052035
C -1.357109  0.508284  1.235809
O -0.97756   1.163384  0.040454
C -1.978027  1.243835 -0.960426
C -1.360561  1.924013 -2.188284
O -0.572497  1.051031 -2.964988
C  0.69454   0.683578 -2.444865
C  0.664398 -0.759096 -1.932698
O  1.982233 -1.061859 -1.513565
C  2.136847 -2.333509 -0.926881
H 1.049001 0.222273 4.533077
H  0.073462 -1.2055    4.979766
H  1.317857 -1.338391  3.705451
H  0.648285 -0.263934  1.467271
H 0.363882 1.297948 2.287041
H -2.083652  1.110595  1.802689
H -1.807903 -0.47282   1.021243
H -2.831933  1.841444 -0.602466
H -2.340112  0.240081 -1.22977 
H -2.168095  2.268535 -2.844755
H -0.773586  2.794187 -1.857413
H  1.424936  0.75582  -3.261159
H  1.004423  1.356856 -1.635519
H -0.041546 -0.854114 -1.095208
H  0.340528 -1.436249 -2.738834
H  1.865825 -3.135289 -1.628437
H  3.18978  -2.434722 -0.65607 
H  1.520629 -2.433823 -0.021588
