30

C  1.181929 -0.744605  2.911568
O  0.009327 -0.552475  2.151621
C -0.607686  0.708575  2.330172
C -1.721988  0.839452  1.293922
O -1.14556   1.338708  0.10112 
C -1.969509  1.274986 -1.049811
C -1.163374  1.822375 -2.234802
O -0.338762  0.852997 -2.836441
C  0.848389  0.483918 -2.153883
C  0.662323 -0.824039 -1.375241
O  1.957101 -1.381349 -1.218268
C  1.976923 -2.628024 -0.56394 
H  0.980272 -0.653188  3.988349
H  1.537186 -1.754682  2.699332
H  1.960599 -0.021122  2.633654
H 0.119634 1.521762 2.185872
H -1.028645  0.789388  3.345898
H -2.499429  1.528648  1.662156
H -2.178457 -0.146684  1.122307
H -2.874428  1.888019 -0.906686
H -2.276849  0.23793  -1.252296
H -1.860225  2.152763 -3.014277
H -0.573095  2.687109 -1.894955
H  1.617685  0.319613 -2.919042
H  1.184001  1.287518 -1.484708
H  0.199875 -0.646019 -0.394719
H  0.014579 -1.501292 -1.954468
H  1.418281 -3.387429 -1.13011 
H  3.022315 -2.934892 -0.487847
H  1.547599 -2.557959  0.445544
