30

C  0.576628 -0.674107  4.115506
O -0.482582 -0.385249  3.230597
C -0.101312  0.307944  2.059614
C -1.367688  0.504563  1.23354 
O -0.983146  1.16347   0.043899
C -1.977974  1.247357 -0.962369
C -1.352497  1.928666 -2.185522
O -0.560778  1.055993 -2.958897
C  0.70218   0.685166 -2.431225
C  0.666558 -0.759137 -1.923966
O  1.980434 -1.064211 -1.494143
C  2.129257 -2.338514 -0.9117  
H 1.062186 0.245188 4.471884
H  0.144879 -1.205233  4.96594 
H  1.333924 -1.311554  3.6376  
H  0.632544 -0.272471  1.478053
H 0.343571 1.285222 2.3043  
H -2.112002  1.090313  1.797066
H -1.835984 -0.470045  1.020659
H -2.83285   1.845623 -0.60791 
H -2.340112  0.244625 -1.235358
H -2.155722  2.275076 -2.846249
H -0.766534  2.797688 -1.849854
H  1.438329  0.759065 -3.242182
H  1.007352  1.35541  -1.617592
H -0.046802 -0.856393 -1.093069
H  0.349352 -1.433466 -2.735095
H  1.864138 -3.137057 -1.619166
H  3.179692 -2.441421 -0.63197 
H  1.504968 -2.442514 -0.012368
