30

C  0.608804 -0.679171  4.10061 
O -0.464348 -0.400089  3.229474
C -0.106299  0.305967  2.058725
C -1.385997  0.489079  1.247745
O -1.016129  1.15931   0.056391
C -2.011382  1.22656  -0.941124
C -1.326509  1.950398 -2.237693
O -0.534012  1.068756 -2.980001
C  0.717163  0.694358 -2.425729
C  0.665322 -0.750428 -1.921999
O  1.969486 -1.061464 -1.467923
C  2.10247  -2.33785  -0.885894
H 1.085182 0.244778 4.457348
H  0.194382 -1.221717  4.952463
H  1.369701 -1.302692  3.610186
H  0.629258 -0.260103  1.465356
H 0.32714  1.287988 2.304766
H -2.117844  1.078543  1.820974
H -1.826421 -0.494719  1.024718
H -2.867869  1.833416 -0.613358
H -2.356689  0.226584 -1.236062
H -2.132456  2.289997 -2.894636
H -0.751495  2.810382 -1.869513
H  1.471328  0.767761 -3.21986 
H  1.004632  1.362498 -1.604033
H -0.063941 -0.845786 -1.104842
H  0.360739 -1.421897 -2.740276
H  1.848523 -3.133594 -1.600531
H  3.146881 -2.444994 -0.586003
H  1.460391e+00 -2.441871e+00  7.400000e-04
