30

C -0.533417  0.09239   5.360914
O -1.109516 -0.151257  4.097111
C -0.585278  0.633364  3.045095
C -1.338972  0.229276  1.781454
O -0.80373   1.002543  0.724263
C -1.37869   0.763123 -0.546945
C -0.659278  1.687718 -1.5415  
O -0.676034  1.129096 -2.842337
C  0.527209  0.583739 -3.336775
C  0.874769 -0.756499 -2.677182
O  1.999576 -1.255793 -3.37392 
C  2.482278 -2.496341 -2.908697
H -0.687047  1.133928  5.676491
H -1.028361 -0.574308  6.069617
H  0.544893 -0.120455  5.356865
H 0.492346 0.448113 2.911628
H -0.732126  1.707335  3.240458
H -2.414967  0.42532   1.907905
H -1.200284 -0.846551  1.591577
H -2.459847  0.969095 -0.532107
H -1.23496  -0.28705  -0.845563
H -1.176457  2.654334 -1.593412
H  0.368267  1.858457 -1.19338 
H  0.372739  0.419762 -4.408707
H  1.364935  1.285267 -3.205067
H  1.109828 -0.616071 -1.610328
H  0.020215 -1.446996 -2.759136
H  1.719875 -3.282557 -3.001484
H  3.342671 -2.755352 -3.528678
H  2.799375 -2.43363  -1.85814 
