30

C  1.046599 -1.023944  3.435824
O -0.037371 -0.811469  2.558747
C -0.030361  0.447772  1.909037
C -1.343381  0.55907   1.129909
O -1.089578  1.385695  0.00947 
C -2.031339  1.336719 -1.047841
C -1.358416  1.91681  -2.299335
O -0.508915  0.995648 -2.947521
C  0.697685  0.650913 -2.284164
C  0.604553 -0.774695 -1.729513
O  1.689267 -0.943729 -0.836669
C  1.686434 -2.172483 -0.142195
H  1.048682 -0.28857   4.25264 
H  0.926558 -2.025074  3.854531
H  2.008156 -0.966685  2.906979
H 0.811719 0.513256 1.202489
H 0.062682 1.263984 2.641675
H -2.14411   0.98032   1.756974
H -1.649231 -0.448035  0.807377
H -2.922499  1.935588 -0.798484
H -2.349324  0.301677 -1.241474
H -2.131484  2.180318 -3.030282
H -0.807704  2.827133 -2.017841
H  1.513491  0.710742 -3.016311
H  0.913951  1.345077 -1.462924
H -0.353557 -0.908404 -1.206268
H  0.651363 -1.509528 -2.548691
H  1.745316 -3.023547 -0.835307
H  2.566825 -2.175597  0.503826
H  0.783998 -2.278962  0.47536 
