30

C  0.531191 -0.733048  4.139172
O -0.514046 -0.403836  3.245556
C -0.13308   0.293008  2.077536
C -1.397014  0.457373  1.237491
O -1.010079  1.127918  0.053018
C -1.998712  1.202553 -0.96016 
C -1.382749  1.92224  -2.166025
O -0.565004  1.084405 -2.950612
C  0.705909  0.739452 -2.424895
C  0.706874 -0.710597 -1.932919
O  2.035084 -0.996125 -1.534669
C  2.217967 -2.270945 -0.963412
H  1.498962 -0.780716  3.625488
H 0.603854 0.015005 4.940643
H  0.305648 -1.707802  4.579803
H  0.618007 -0.274153  1.505632
H 0.286026 1.28263  2.318139
H -2.148025  1.039763  1.79314 
H -1.820877 -0.532625  1.009178
H -2.872213  1.771227 -0.602481
H -2.331318  0.195365 -1.253635
H -2.190331  2.261311 -2.825281
H -0.820607  2.798899 -1.810086
H  1.440466  0.839354 -3.234482
H  0.993652  1.409426 -1.604612
H  0.013686 -0.830582 -1.088063
H  0.384827 -1.381276 -2.745174
H  1.950769 -3.069875 -1.669676
H  3.275852 -2.357781 -0.707285
H  1.615292 -2.390567 -0.051308
