30

C  0.58417  -0.678328  4.104842
O -0.477853 -0.39034   3.224833
C -0.102099  0.306825  2.05414 
C -1.373086  0.500699  1.231924
O -0.987184  1.163775  0.042952
C -1.98057   1.247818 -0.964659
C -1.353099  1.929793 -2.186436
O -0.559145  1.05762  -2.958102
C  0.702171  0.686559 -2.426693
C  0.664908 -0.758336 -1.921294
O  1.97546  -1.061395 -1.480101
C  2.122202 -2.337263 -0.900522
H 1.065417 0.239597 4.472438
H  0.159256 -1.202663  4.963604
H  1.342541 -1.313341  3.626651
H  0.631962 -0.269894  1.469327
H 0.340067 1.284997 2.299805
H -2.103746  1.098656  1.798148
H -1.82158  -0.479432  1.008173
H -2.836252  1.845696 -0.611444
H -2.341965  0.245143 -1.238885
H -2.155066  2.27584  -2.848876
H -0.768314  2.79907  -1.849375
H  1.441172  0.761853 -3.234939
H  1.004293  1.355632 -1.610984
H -0.055703 -0.857636 -1.096871
H  0.356149 -1.432557 -2.735763
H  1.86621  -3.13411  -1.613243
H  3.170162 -2.438194 -0.610967
H  1.489531 -2.446086 -0.007662
