30

C  0.223726 -0.690824  4.449935
O -0.720682 -0.497927  3.420521
C -0.26931   0.29643   2.342948
C -1.428002  0.394466  1.354636
O -0.955394  1.144211  0.251429
C -1.813138  1.178665 -0.8778  
C -1.069425  1.915937 -2.006791
O -0.747942  1.048484 -3.076273
C  0.542211  0.473841 -3.076899
C  0.723188 -0.56905  -1.967812
O  1.968508 -1.19479  -2.215871
C  2.334345 -2.168602 -1.264934
H 0.522189 0.264946 4.90302 
H -0.255178 -1.31371   5.207761
H  1.122789 -1.201635  4.077269
H  0.600168 -0.164945  1.846848
H 0.019516 1.302544 2.68537 
H -2.289857  0.888923  1.828307
H -1.733001 -0.615975  1.041602
H -2.746946  1.705113 -0.624689
H -2.069081  0.160168 -1.205062
H -1.71942   2.694793 -2.424753
H -0.169421  2.395248 -1.598072
H  0.656546 -0.018646 -4.048493
H  1.317937  1.249173 -2.981316
H  0.724121 -0.089382 -0.977833
H -0.099205 -1.301545 -2.003303
H  1.609949 -2.995008 -1.238743
H  3.310385 -2.555993 -1.563685
H  2.410433 -1.734912 -0.257295
