30

C  0.545143 -0.658706  4.160155
O -0.492565 -0.413442  3.234306
C -0.107768  0.274491  2.061887
C -1.376064  0.473747  1.236445
O -0.985735  1.139071  0.050145
C -1.979222  1.231658 -0.956755
C -1.355664  1.933182 -2.169428
O -0.560997  1.074909 -2.955646
C  0.705209  0.704269 -2.435928
C  0.677986 -0.74458  -1.941249
O  1.999178 -1.053401 -1.537265
C  2.156072 -2.32893  -0.959703
H 1.25321  0.17912  4.198987
H  0.084234 -0.794309  5.140853
H  1.103186 -1.568175  3.894652
H  0.623447 -0.307806  1.478761
H 0.339144 1.250991 2.304949
H -2.106241  1.072319  1.80268 
H -1.826928 -0.504406  1.009036
H -2.83772   1.820652 -0.5956  
H -2.335742  0.230946 -1.244215
H -2.159999  2.286789 -2.825008
H -0.772697  2.799059 -1.820663
H  1.437658  0.787785 -3.249278
H  1.01104   1.369061 -1.617998
H -0.020614 -0.849748 -1.098877
H  0.346724 -1.41123  -2.753116
H  1.875906 -3.125819 -1.66323 
H  3.211337 -2.434619 -0.699906
H  1.548494 -2.432878 -0.048971
