30

C  0.544024 -0.666697  4.131719
O -0.505117 -0.369541  3.237553
C -0.105341  0.302348  2.060275
C -1.366     0.51376   1.226479
O -0.959376  1.157542  0.034867
C -1.952709  1.263359 -0.981079
C -1.374126  1.90846  -2.1384  
O -0.581861  1.045214 -2.939808
C  0.691037  0.678308 -2.43568 
C  0.670184 -0.764918 -1.923943
O  1.995823 -1.069254 -1.530911
C  2.159185 -2.338228 -0.941137
H 1.044244 0.247969 4.479621
H  0.098242 -1.179552  4.98612 
H  1.292166 -1.323463  3.665726
H  0.619463 -0.299109  1.488905
H 0.35728  1.273621 2.295561
H -2.088419  1.131464  1.78229 
H -1.832765 -0.459403  1.009165
H -2.803504  1.856076 -0.600702
H -2.333818  0.259853 -1.235133
H -2.173075  2.262105 -2.804626
H -0.778991  2.784824 -1.830261
H  1.410562  0.751241 -3.261614
H  1.011803  1.351894 -1.630726
H -0.019293 -0.860539 -1.072933
H  0.330123 -1.441034 -2.724286
H  1.870586 -3.142876 -1.632352
H  3.21739  -2.441519 -0.692491
H  1.562293 -2.431903 -0.022181
