30

C  0.558547 -0.659666  4.141638
O -0.488472 -0.37132   3.242474
C -0.084146  0.315497  2.065864
C -1.360492  0.503614  1.240245
O -0.973091  1.155142  0.04505 
C -1.971194  1.241598 -0.957857
C -1.350498  1.927047 -2.181103
O -0.563892  1.056475 -2.961986
C  0.702416  0.684191 -2.443852
C  0.66903  -0.759204 -1.933812
O  1.990485 -1.072115 -1.533781
C  2.143322 -2.344023 -0.947326
H 1.045246 0.25917  4.49792 
H  0.113702 -1.182316  4.990669
H  1.318016 -1.305094  3.677917
H  0.592085 -0.329402  1.490355
H 0.290954 1.308953 2.341432
H -2.089709  1.10857   1.800649
H -1.81073  -0.477551  1.025233
H -2.825123  1.838458 -0.598778
H -2.333843  0.239551 -1.232737
H -2.156346  2.277496 -2.836512
H -0.761568  2.793752 -1.844621
H  1.431793  0.754823 -3.261182
H  1.015595  1.355841 -1.634348
H -0.025585 -0.851296 -1.08659 
H  0.329207 -1.432172 -2.736866
H  1.854647 -3.14466  -1.643105
H  3.199395 -2.453812 -0.692552
H  1.540258 -2.437547 -0.032421
