30

C -0.460188  0.021987  5.294618
O -1.075211 -0.184684  4.042607
C -0.554127  0.59998   2.98907 
C -1.351861  0.238707  1.739557
O -0.819138  1.010596  0.680103
C -1.430172  0.804976 -0.580366
C -0.703029  1.716197 -1.58271 
O -0.692624  1.135711 -2.873413
C  0.520572  0.578439 -3.328447
C  0.861057 -0.738499 -2.620106
O  2.001872 -1.253072 -3.27885 
C  2.483593 -2.473791 -2.762941
H -0.573971  1.062687  5.629279
H -0.957157 -0.640368  6.005968
H  0.610694 -0.223135  5.259714
H 0.513538 0.384163 2.824864
H -0.662783  1.674738  3.204111
H -2.41762   0.466273  1.896291
H -1.252001 -0.837966  1.530921
H -2.503305  1.046148 -0.536884
H -1.329119 -0.246024 -0.893213
H -1.219322  2.681624 -1.655975
H  0.318789  1.897349 -1.22164 
H  0.385486  0.37995  -4.397162
H  1.353927  1.286676 -3.204341
H  1.074533 -0.563363 -1.553843
H  0.011913 -1.43626  -2.697009
H  1.728204 -3.268092 -2.84347 
H  3.357351 -2.747454 -3.357436
H  2.780109 -2.373492 -1.709278
