30

C  0.674881 -0.65386   3.940728
O -0.534641 -0.467866  3.220306
C -0.163323  0.270288  2.061299
C -1.424664  0.481972  1.225774
O -1.020642  1.170512  0.057034
C -1.989302  1.260095 -0.973857
C -1.329779  1.945521 -2.176748
O -0.51275   1.076142 -2.927533
C  0.727629  0.695577 -2.354814
C  0.668317 -0.756595 -1.872789
O  1.951907 -1.061088 -1.359116
C  2.075945 -2.352834 -0.809879
H 1.116136 0.309977 4.223942
H  0.437709 -1.217425  4.847057
H  1.402536 -1.22127   3.346706
H  0.577809 -0.285578  1.468109
H 0.266624 1.243282 2.340606
H -2.164527  1.067685  1.792822
H -1.869211 -0.492951  0.973263
H -2.852609  1.857875 -0.639577
H -2.345153  0.259095 -1.261042
H -2.113431  2.291307 -2.860803
H -0.756123  2.815182 -1.821958
H  1.497177  0.781884 -3.132919
H  0.999238  1.351537 -1.518145
H -0.099237 -0.870496 -1.093846
H  0.411001 -1.420457 -2.713187
H  1.873744 -3.129596 -1.560975
H  3.104781 -2.453156 -0.458193
H  1.389968 -2.494761  0.037753
