30

C -0.419038 -0.467286  4.094088
O  0.74017  -0.329978  3.304894
C 0.686941 0.295327 2.034884
C -0.71561   0.579655  1.492476
O -0.508116  1.159856  0.217238
C -1.678226  1.356162 -0.559422
C -1.260133  1.988425 -1.892701
O -0.763299  1.048596 -2.816691
C  0.549377  0.556594 -2.603242
C  0.509218 -0.869696 -2.04735 
O  1.850357 -1.32019  -2.015843
C  2.041339 -2.567135 -1.387911
H -1.173774 -1.10926   3.619054
H -0.094913 -0.941798  5.023656
H -0.876601  0.502096  4.337413
H  1.197544 -0.366245  1.319871
H 1.25009  1.240265 2.075779
H -1.267529  1.276291  2.142853
H -1.298095 -0.350499  1.399273
H -2.37468   2.031712 -0.037031
H -2.188059  0.39806  -0.741842
H -2.143756  2.437639 -2.36115 
H -0.519412  2.778413 -1.697034
H  1.060667  0.542484 -3.57434 
H  1.111458  1.205603 -1.919286
H  0.072621 -0.877793 -1.038329
H -0.108142 -1.508195 -2.69904 
H  1.488779 -3.365697 -1.903207
H  3.110243 -2.785432 -1.430497
H  1.720589 -2.537976 -0.336543
