30

C  0.516934 -0.539777  4.230918
O -0.52998  -0.285889  3.320934
C -0.11265   0.193637  2.058831
C -1.376839  0.422104  1.234418
O -0.975435  1.098508  0.057911
C -1.968894  1.226187 -0.945133
C -1.338875  1.947885 -2.142463
O -0.554219  1.09872  -2.948395
C  0.71308   0.71194  -2.443765
C  0.680398 -0.743324 -1.96849 
O  2.006041 -1.070665 -1.594596
C  2.159807 -2.351561 -1.028685
H 1.091569 0.372542 4.443872
H  0.056496 -0.89803   5.153617
H  1.20283  -1.308131  3.847084
H  0.542584 -0.534316  1.554613
H 0.435644 1.143617 2.15943 
H -2.090443  1.029816  1.812299
H -1.852495 -0.540711  0.993357
H -2.819746  1.81701  -0.569222
H -2.337744  0.236676 -1.255033
H -2.140136  2.324522 -2.788956
H -0.746329  2.799517 -1.775357
H  1.439438  0.801139 -3.261946
H  1.030243  1.363681 -1.619582
H -0.002658 -0.853466 -1.114088
H  0.326941 -1.395279 -2.782919
H  1.853199 -3.140503 -1.730142
H  3.21929  -2.472361 -0.793845
H  1.571961 -2.453486 -0.10465 
