30

C  0.146109 -0.606682  4.56821 
O -0.761243 -0.469983  3.497327
C -0.300833  0.331127  2.428448
C -1.420876  0.365451  1.392573
O -0.938968  1.126387  0.301121
C -1.763872  1.128858 -0.852419
C -1.013772  1.902034 -1.953716
O -0.749779  1.087769 -3.0783  
C  0.524584  0.482485 -3.142973
C  0.72481  -0.585614 -2.06117 
O  1.966554 -1.202526 -2.344769
C  2.351095 -2.198547 -1.424394
H 0.381298 0.367265 5.019858
H -0.336007 -1.241531  5.313984
H  1.08251  -1.080231  4.241102
H  0.608256 -0.096295  1.975252
H -0.072044  1.353269  2.76879 
H -2.32328   0.823546  1.825647
H -1.666087 -0.660899  1.078593
H -2.727596  1.611642 -0.625875
H -1.966205  0.101697 -1.19017 
H -1.615219  2.754591 -2.291773
H -0.080126  2.300657 -1.531717
H  0.588647  0.008384 -4.128008
H  1.322351  1.236905 -3.061866
H  0.740684 -0.127989 -1.060267
H -0.096598 -1.319173 -2.099235
H  1.627405 -3.02568  -1.403773
H  3.320969 -2.57811  -1.751796
H  2.447243 -1.788805 -0.408665
