30

C  0.581018 -0.676046  4.110457
O -0.4801   -0.387559  3.22771 
C -0.101766  0.307644  2.056911
C -1.370383  0.503061  1.232825
O -0.985273  1.163953  0.043439
C -1.979363  1.247698 -0.963518
C -1.352897  1.92908  -2.18613 
O -0.55981   1.056566 -2.958285
C  0.702228  0.685836 -2.428344
C  0.665716 -0.758686 -1.921808
O  1.977799 -1.0626   -1.485761
C  2.125524 -2.337752 -0.904877
H 1.06591  0.243478 4.467151
H  0.151476 -1.208835  4.960971
H  1.338382 -1.311839  3.630457
H  0.632108 -0.270888  1.473557
H 0.341806 1.285377 2.302056
H -2.107965  1.094886  1.797717
H -1.829158 -0.474253  1.014663
H -2.834651  1.845855 -0.609837
H -2.341128  0.244938 -1.236919
H -2.155508  2.274914 -2.847903
H -0.767741  2.798466 -1.849992
H  1.440037  0.76038  -3.23774 
H  1.005579  1.355641 -1.613684
H -0.051586 -0.856882 -1.094393
H  0.353072 -1.433102 -2.734633
H  1.865403 -3.135383 -1.615222
H  3.174624 -2.439543 -0.619784
H  1.496656 -2.444404 -0.009063
