30

C -1.687308  0.580125  5.65858 
O -1.180524  0.01065   4.472342
C -1.050273  0.911552  3.391015
C -0.504679  0.10648   2.21533 
O -0.361199  1.009631  1.136204
C  0.114376  0.436906 -0.068318
C  0.138247  1.557646 -1.124612
O -0.450082  1.155138 -2.343367
C  0.393837  0.611857 -3.333588
C  0.722606 -0.862802 -3.069477
O  1.424871 -1.319258 -4.208048
C  1.784217 -2.682653 -4.178037
H -2.694707  0.992249  5.505888
H -1.735167 -0.219707  6.400037
H -1.031063  1.37937   6.030941
H -0.354696  1.72906   3.638241
H -2.023501  1.351652  3.122534
H -1.204548 -0.704383  1.960035
H  0.464122 -0.341623  2.486503
H -0.564895 -0.362512 -0.403863
H 1.115584 0.001754 0.080229
H -0.448053  2.400529 -0.740459
H  1.167617  1.910173 -1.289763
H -0.151152  0.684451 -4.281211
H  1.327694  1.188088 -3.419903
H  1.34102  -0.968545 -2.163384
H -0.209113 -1.431887 -2.923061
H  0.897473 -3.328369 -4.110759
H  2.311848 -2.892523 -5.110339
H  2.44746  -2.903049 -3.329669
