30

C  0.568565 -0.661608  4.12706 
O -0.485089 -0.386054  3.231576
C -0.097359  0.295078  2.054047
C -1.366872  0.49304   1.232401
O -0.982342  1.157803  0.043822
C -1.978191  1.24631  -0.960949
C -1.353011  1.93097  -2.182394
O -0.562019  1.060132 -2.958591
C  0.701086  0.687525 -2.432568
C  0.665256 -0.758203 -1.929432
O  1.978436 -1.063807 -1.497884
C  2.127175 -2.3404   -0.920456
H 1.048694 0.263152 4.476691
H  0.132516 -1.184718  4.980281
H  1.331363 -1.301843  3.661723
H  0.649125 -0.289419  1.494048
H 0.345901 1.27468  2.294884
H -2.092762  1.092274  1.803109
H -1.820268 -0.484597  1.007276
H -2.832057  1.844426 -0.603765
H -2.341792  0.244976 -1.237181
H -2.156332  2.279742 -2.841762
H -0.766415  2.798676 -1.844433
H  1.436948  0.763708 -3.243586
H  1.006725  1.355213 -1.617017
H -0.049738 -0.858059 -1.10022 
H  0.350011 -1.430507 -2.743003
H  1.864646 -3.136215 -1.631954
H  3.177028 -2.443387 -0.638579
H  1.500785 -2.44889  -0.023124
