30

C  0.217479 -0.687536  4.458495
O -0.723542 -0.500113  3.42498 
C -0.274612  0.302718  2.352674
C -1.429478  0.39364   1.359274
O -0.95863   1.151884  0.261016
C -1.807858  1.1788   -0.873033
C -1.061791  1.913241 -2.002667
O -0.752623  1.049507 -3.077412
C  0.535319  0.470086 -3.087989
C  0.721231 -0.570614 -1.977605
O  1.967508 -1.193696 -2.227183
C  2.337262 -2.165966 -1.276089
H 0.504193 0.269429 4.916597
H -0.259114 -1.317917  5.211563
H  1.123409 -1.188086  4.088565
H  0.601486 -0.148423  1.85895 
H 0.002996 1.310169 2.700378
H -2.298165  0.878135  1.830591
H -1.723435 -0.618386  1.040786
H -2.759748  1.681797 -0.641444
H -2.04473   0.154711 -1.200703
H -1.687796  2.722004 -2.399102
H -0.149802  2.367456 -1.589414
H  0.639867 -0.024734 -4.059405
H  1.314653  1.242668 -3.000108
H  0.722839 -0.088983 -0.988398
H -0.099451 -1.305166 -2.009984
H  1.614547 -2.993747 -1.247707
H  3.313427 -2.55167  -1.576538
H  2.414569 -1.731206 -0.26907 
