30

C -0.228577 -0.215631  5.046044
O -0.95842  -0.298408  3.842287
C -0.449465  0.488688  2.784717
C -1.376495  0.270715  1.592548
O -0.85377   1.039519  0.525892
C -1.564611  0.93824  -0.6953  
C -0.821057  1.808882 -1.7248  
O -0.728172  1.154268 -2.975378
C  0.506171  0.548144 -3.292764
C  0.801273 -0.676307 -2.417789
O  1.992096 -1.243463 -2.928722
C  2.448565 -2.383444 -2.235771
H -0.21398   0.81218   5.435078
H -0.729236 -0.865272  5.766464
H  0.807298 -0.557056  4.910177
H 0.575138 0.182383 2.520248
H -0.434283  1.555905  3.056597
H -2.39802   0.592813  1.847344
H -1.402776 -0.798644  1.33107 
H -2.602261  1.28318  -0.564707
H -1.594665 -0.10554  -1.042745
H -1.358889  2.752101 -1.881626
H  0.176355  2.048739 -1.330997
H  0.431626  0.229289 -4.337761
H  1.334313  1.267736 -3.201723
H  0.933129 -0.379285 -1.365355
H -0.033879 -1.39257  -2.477662
H  1.710234 -3.196804 -2.27318 
H  3.366678 -2.708888 -2.728664
H  2.665691 -2.15147  -1.183501
