30

C  0.4371   -0.433265  4.319027
O -0.442884 -0.563858  3.225185
C -0.056383  0.11889   2.048137
C -1.329049  0.396432  1.251517
O -0.931455  1.072775  0.073758
C -1.9378    1.227067 -0.912847
C -1.318112  1.961373 -2.107976
O -0.560959  1.116404 -2.943706
C  0.70997   0.702652 -2.470436
C  0.665092 -0.758587 -2.014949
O  1.995593 -1.114591 -1.687632
C  2.142245 -2.402119 -1.134418
H 0.565102 0.619678 4.606032
H -0.00955  -0.980124  5.151851
H  1.424195 -0.861849  4.095547
H  0.63023  -0.49748   1.446406
H 0.452855 1.06432  2.286708
H -2.019686  1.013511  1.846907
H -1.829473 -0.553669  1.009899
H -2.776433  1.821    -0.515051
H -2.321998  0.246586 -1.232501
H -2.125112  2.361878 -2.732668
H -0.706541  2.797294 -1.735849
H  1.420557  0.792157 -3.302289
H  1.054071  1.338204 -1.644336
H  0.007198 -0.86932  -1.141177
H  0.274662 -1.39177  -2.827327
H  1.799864 -3.180378 -1.83124 
H  3.205909 -2.544107 -0.932718
H  1.580799 -2.499104 -0.193834
