30

C  0.6446   -0.65371   3.991379
O -0.532763 -0.442757  3.231367
C -0.154717  0.276579  2.066367
C -1.415429  0.486584  1.230528
O -1.010783  1.163017  0.055048
C -1.985451  1.254747 -0.970044
C -1.33341   1.941343 -2.176308
O -0.524582  1.071874 -2.935649
C  0.722827  0.692739 -2.377638
C  0.669885 -0.757229 -1.888324
O  1.96603  -1.065638 -1.409705
C  2.096308 -2.350727 -0.846674
H 1.101149 0.300668 4.284247
H  0.360972 -1.205538  4.890919
H  1.378579 -1.24212   3.425264
H  0.58312  -0.292067  1.480342
H 0.283786 1.249697 2.333393
H -2.151438  1.080669  1.793901
H -1.865006 -0.4885    0.987678
H -2.846081  1.852897 -0.629596
H -2.344011  0.254398 -1.256168
H -2.121682  2.290681 -2.853254
H -0.754929  2.808802 -1.823991
H  1.481666  0.774658 -3.166635
H  1.006216  1.352669 -1.547935
H -0.075939 -0.864639 -1.087702
H  0.38624  -1.422925 -2.718756
H  1.864512 -3.135989 -1.580191
H  3.134658 -2.455212 -0.525477
H  1.435684 -2.47497   0.023635
