30

C -1.833609  0.562009  5.60525 
O -1.191489  0.02185   4.472051
C -1.095176  0.901711  3.369946
C -0.390804  0.131837  2.256792
O -0.280207  1.016244  1.15861 
C 0.326998 0.468887 0.00351 
C  0.295911  1.549879 -1.094443
O -0.439598  1.138949 -2.229168
C  0.276767  0.589016 -3.311109
C  0.694662 -0.864242 -3.053867
O  1.268295 -1.327827 -4.259757
C  1.683911 -2.675316 -4.241071
H -2.869211  0.851745  5.378107
H -1.838271 -0.217287  6.369761
H -1.296546  1.441088  5.988523
H -0.511943  1.799285  3.629653
H -2.092678  1.221001  3.029518
H -0.979306 -0.759025  1.987628
H  0.602618 -0.197265  2.600205
H -0.216965 -0.42428  -0.34012 
H 1.364194 0.167557 0.225915
H -0.199978  2.438475 -0.686308
H  1.319141  1.834087 -1.38204 
H -0.39762   0.613105 -4.17399 
H  1.168494  1.190961 -3.544606
H  1.424704 -0.918938 -2.229929
H -0.187398 -1.463601 -2.777988
H  0.839465 -3.351463 -4.047338
H  2.099922 -2.892965 -5.226563
H  2.455725 -2.845478 -3.477152
