30

C 1.080847 0.179176 2.230838
O -0.185218  0.322207  2.842249
C -1.145567 -0.642269  2.509056
C -1.910617 -0.376272  1.181397
O -1.252666  0.600409  0.400013
C -1.982145  1.028432 -0.736146
C -1.168082  2.109862 -1.456926
O -0.189075  1.581533 -2.324788
C  1.001793  1.096344 -1.733027
C  0.994418 -0.433917 -1.660936
O  2.146621 -0.80372  -0.924089
C  2.314908 -2.192367 -0.751025
H 1.036241 0.349652 1.150786
H 1.732979 0.92825  2.684945
H  1.499093 -0.821036  2.414454
H -1.875617 -0.652851  3.32794 
H -0.680491 -1.64182   2.457951
H -2.930905 -0.029012  1.417394
H -2.00334  -1.32068   0.619165
H -2.951544  1.451743 -0.425494
H -2.172772  0.186871 -1.420002
H -1.84566   2.697241 -2.087746
H -0.711789  2.774207 -0.708315
H  1.842185  1.424656 -2.357987
H  1.136725  1.507663 -0.724106
H  0.083571 -0.788443 -1.158381
H  1.021252 -0.862439 -2.674932
H  2.418964 -2.706248 -1.716999
H  3.227975 -2.333638 -0.169218
H  1.467924 -2.633533 -0.206047
