30

C  0.529605 -0.729507  4.143614
O -0.513605 -0.402299  3.246458
C -0.131899  0.292996  2.077809
C -1.395919  0.457892  1.237947
O -1.008763  1.127645  0.053099
C -1.997775  1.202963 -0.959664
C -1.381928  1.9224   -2.165742
O -0.565267  1.084128 -2.950997
C  0.705782  0.738219 -2.426236
C  0.706156 -0.711888 -1.934415
O  2.034669 -0.998617 -1.538044
C  2.217202 -2.273623 -0.96709 
H  1.503619 -0.74245   3.640177
H 5.746270e-01 1.128000e-03 4.962633e+00
H  0.324201 -1.7198    4.559463
H  0.618369 -0.275388  1.506058
H 0.288116 1.282472 2.317328
H -2.14635   1.041083  1.79354 
H -1.820583 -0.53188   1.010164
H -2.870767  1.77214  -0.601544
H -2.331132  0.196005 -1.253077
H -2.189632  2.262213 -2.824467
H -0.818931  2.798572 -1.809951
H  1.439786  0.837662 -3.236378
H  0.99462   1.407945 -1.606132
H  0.014048 -0.831392 -1.088613
H  0.382407 -1.382179 -2.746316
H  1.948381 -3.072286 -1.673039
H  3.275348 -2.361389 -0.712363
H  1.615623 -2.392764 -0.054201
