30

C  0.47114  -0.806585  4.061309
O -0.55136  -0.236367  3.275387
C -0.188397  0.026724  1.935306
C -1.408467  0.650598  1.264053
O -1.037101  0.929556 -0.071485
C -2.050511  1.510081 -0.868457
C -1.507659  1.797207 -2.283499
O -0.734489  0.758513 -2.82888 
C  0.605426  0.617532 -2.382126
C  0.799834 -0.810808 -1.871881
O  2.144407 -0.909427 -1.43863 
C  2.482291 -2.141911 -0.847089
H  1.34351  -0.141259  4.126424
H  0.058231 -0.956657  5.06066 
H  0.795018 -1.775082  3.654618
H  0.090964 -0.902317  1.412898
H 0.662681 0.72371  1.884247
H -1.695713  1.572083  1.794002
H -2.25654  -0.05097   1.299093
H -2.404996  2.455342 -0.427453
H -2.908076  0.819603 -0.935911
H -2.363577  1.938831 -2.953518
H -0.926456  2.734135 -2.260176
H  1.283755  0.799069 -3.228503
H  0.844237  1.331244 -1.585132
H  0.103386 -1.009071 -1.044234
H  0.592356 -1.529712 -2.680087
H  2.340992 -2.976907 -1.548192
H  3.535883 -2.084482 -0.565784
H  1.879243 -2.332673  0.053062
