30

C  1.380703 -0.185194  2.921425
O  0.371034 -0.135538  1.940353
C -0.899504  0.245038  2.422267
C -1.833409  0.573005  1.246473
O -1.095329  1.18211   0.210511
C -1.814198  1.420804 -0.985446
C -0.819449  1.907755 -2.052574
O -0.416472  0.867887 -2.918947
C  0.784256  0.183069 -2.620692
C  0.640278 -0.773834 -1.432343
O  1.735633 -1.671566 -1.512014
C  1.796005 -2.595939 -0.450527
H  1.166572 -0.949138  3.682691
H  2.308933 -0.44174   2.407745
H 1.500495 0.786929 3.420399
H -0.798277  1.138087  3.062816
H -1.352856 -0.556957  3.027669
H -2.639146  1.234565  1.60446 
H -2.297534 -0.357016  0.874681
H -2.588636  2.186766 -0.815939
H -2.305959  0.50046  -1.335527
H -1.313389  2.66105  -2.679828
H  0.044695  2.373584 -1.558682
H  1.025443 -0.403273 -3.514464
H  1.604428  0.893466 -2.435444
H  0.661692 -0.228288 -0.480381
H -0.315607 -1.316499 -1.507964
H  0.91704  -3.256807 -0.443921
H  2.695621 -3.197529 -0.597536
H  1.856944 -2.085257  0.520759
