30

C  0.082376 -0.107144  4.426066
O -0.099173 -0.804236  3.213588
C  0.182068 -0.086553  2.028045
C -1.131899  0.26369   1.320098
O -0.783014  0.983244  0.152388
C -1.840112  1.213467 -0.764179
C -1.27089   1.99246  -1.956187
O -0.592605  1.172185 -2.879368
C  0.693175  0.702309 -2.509971
C  0.63522  -0.776892 -2.118326
O  1.974179 -1.184604 -1.907178
C  2.120786 -2.496121 -1.413124
H -0.585415  0.762334  4.500401
H -0.155362 -0.806935  5.229984
H 1.120863 0.232312 4.541009
H  0.790508 -0.722787  1.373173
H 0.734579 0.839002 2.238815
H -1.768501  0.872634  1.981236
H -1.675175 -0.659344  1.067215
H -2.637153  1.807033 -0.287973
H -2.269617  0.260677 -1.108764
H -2.1013    2.448188 -2.50818 
H -0.612145  2.789968 -1.580228
H  1.350443  0.81126  -3.382313
H  1.109032  1.289539 -1.681041
H  0.039716 -0.910169 -1.203877
H  0.166799 -1.359825 -2.92711 
H  1.703909 -3.237072 -2.110022
H  3.191444 -2.675802 -1.296732
H  1.627274 -2.612818 -0.437425
