30

C  1.08138  -0.964202  3.120875
O -0.012872 -0.701703  2.269738
C -0.38876   0.6626    2.205833
C -1.576785  0.780904  1.246738
O -1.104296  1.36448   0.045506
C -1.995744  1.314572 -1.055152
C -1.251688  1.850372 -2.284908
O -0.443141  0.878606 -2.905645
C  0.764708  0.518838 -2.25461 
C  0.616261 -0.820693 -1.526827
O  1.926428 -1.240056 -1.18995 
C  1.972728 -2.405888 -0.399697
H  0.867132 -0.652181  4.153009
H  1.250091 -2.042424  3.100638
H  1.9885   -0.448986  2.776409
H 0.443152 1.278763 1.833401
H -0.667949  1.023927  3.209071
H -2.368636  1.408217  1.687115
H -1.990963 -0.220003  1.056394
H -2.882183  1.9398   -0.859311
H -2.328556  0.282252 -1.24029 
H -1.987091  2.158329 -3.037509
H -0.656691  2.727441 -1.987904
H  1.533209  0.409947 -3.030613
H  1.083948  1.298347 -1.55044 
H  0.004685 -0.711191 -0.620581
H  0.128487 -1.549778 -2.193459
H  1.571548 -3.27449  -0.941691
H  3.021569 -2.588295 -0.156152
H  1.401538 -2.277506  0.530035
