30

C  0.887253 -0.79311   3.731103
O -0.263626 -0.507507  2.968839
C -0.049842  0.386772  1.893741
C -1.373855  0.49515   1.140903
O -1.117331  1.281075 -0.009369
C -2.097214  1.257357 -1.040673
C -1.351944  1.95655  -2.195756
O -0.484495  1.089765 -2.891809
C  0.716332  0.704814 -2.242773
C  0.628437 -0.757293 -1.791819
O  1.728779 -0.988133 -0.930665
C  1.851389 -2.317548 -0.475797
H 1.298842 0.116138 4.191505
H  0.585146 -1.48809   4.517095
H  1.668165 -1.261569  3.115204
H 0.728405 0.008352 1.213214
H 0.260581 1.377875 2.260184
H -2.141223  0.961945  1.777328
H -1.717883 -0.511943  0.860371
H -2.995236  1.821498 -0.750041
H -2.376308  0.230485 -1.309228
H -2.073056  2.31872  -2.939835
H -0.805525  2.816364 -1.783121
H  1.53824   0.816999 -2.962096
H  0.924092  1.34151  -1.374422
H -0.320944 -0.932419 -1.264732
H  0.665433 -1.427932 -2.664457
H  2.011788 -3.012437 -1.312083
H  2.717332 -2.34893   0.188512
H  0.958277 -2.634458  0.080695
