30

C  0.519573 -0.661284  4.14491 
O -0.520766 -0.358242  3.242464
C -0.105995  0.29817   2.061659
C -1.359837  0.520998  1.220505
O -0.94023   1.153873  0.028361
C -1.933973  1.276624 -0.99427 
C -1.389559  1.893612 -2.105399
O -0.596871  1.036839 -2.927353
C  0.683032  0.673048 -2.440478
C  0.673053 -0.769178 -1.925181
O  2.006686 -1.072906 -1.559355
C  2.180926 -2.33739  -0.963319
H 1.029827 0.249777 4.487663
H  0.062511 -1.160838  5.001229
H  1.261563 -1.33177   3.688736
H  0.61268  -0.31832   1.498606
H 0.369416 1.264631 2.291173
H -2.077174  1.150071  1.770358
H -1.837713 -0.447494  1.005961
H -2.780003  1.866292 -0.592901
H -2.330762  0.272436 -1.231048
H -2.185791  2.250981 -2.776382
H -0.787929  2.776298 -1.820253
H  1.390177  0.744928 -3.277206
H  1.015054  1.349439 -1.642379
H  0.001548 -0.863268 -1.059761
H  0.316341 -1.446837 -2.716948
H  1.875619 -3.147039 -1.641424
H  3.244208 -2.440821 -0.73737 
H  1.604399 -2.42263  -0.030579
