30

C  0.014777 -0.081353  4.416251
O -0.02051  -0.81862   3.214224
C  0.23363  -0.093064  2.028883
C -1.089341  0.258381  1.337045
O -0.753382  0.979177  0.166359
C -1.821765  1.214857 -0.735673
C -1.265602  1.993842 -1.933853
O -0.603307  1.172568 -2.86764 
C  0.685585  0.696983 -2.516766
C  0.627253 -0.782678 -2.126906
O  1.967379 -1.19584  -1.934906
C  2.115874 -2.508573 -1.444599
H -0.763714  0.69368   4.443594
H -0.163042 -0.791529  5.226437
H 0.993823 0.394817 4.563752
H  0.832318 -0.728571  1.365507
H 0.789437 0.832233 2.23484 
H -1.719401  0.867246  2.004658
H -1.635428 -0.664445  1.089228
H -2.610213  1.810434 -0.247796
H -2.259278  0.264232 -1.076112
H -2.10158   2.453985 -2.473646
H -0.598577  2.787953 -1.565381
H  1.331201  0.804924 -3.397881
H  1.115099  1.281117 -1.692629
H  0.043842 -0.91527  -1.204586
H  0.14548  -1.362371 -2.930164
H  1.686865 -3.247041 -2.136752
H  3.187349 -2.692276 -1.343017
H  1.635238 -2.624796 -0.462451
