30

C -1.404054  0.609345  5.72567 
O -1.102669  0.018501  4.481309
C -0.983739  0.928353  3.406323
C -0.666142  0.098974  2.165641
O -0.538742  1.009159  1.089931
C -0.253777  0.420472 -0.165035
C -0.198859  1.570266 -1.1814  
O -0.449326  1.128144 -2.497218
C  0.633833  0.621664 -3.249135
C  0.735567 -0.903773 -3.13231 
O  1.744208 -1.302034 -4.038806
C  1.958024 -2.69381  -4.116502
H -2.365144  1.141577  5.693507
H -1.466218 -0.200342  6.455256
H -0.61951   1.314555  6.03425 
H -0.174177  1.652772  3.588154
H -1.921433  1.485398  3.25306 
H -1.478116 -0.620764  1.978404
H  0.268645 -0.462159  2.320132
H -1.050291 -0.282732 -0.455669
H  0.700411 -0.128362 -0.128205
H -1.000394  2.27654  -0.935236
H  0.765059  2.095987 -1.115088
H  0.444113  0.877959 -4.298374
H  1.583706  1.083575 -2.943076
H  0.996299 -1.201311 -2.104044
H -0.23307  -1.3603   -3.389786
H  1.051343 -3.219731 -4.446861
H  2.752469 -2.852789 -4.848108
H  2.271993 -3.105132 -3.146763
