30

C  0.569385 -0.674335  4.114832
O -0.488348 -0.381874  3.229307
C -0.103505  0.306513  2.056561
C -1.370666  0.507686  1.230157
O -0.976799  1.16333   0.040087
C -1.969778  1.254442 -0.971151
C -1.361893  1.920914 -2.167628
O -0.568301  1.051766 -2.950197
C  0.697628  0.682882 -2.429009
C  0.667085 -0.761379 -1.921067
O  1.983407 -1.064166 -1.497046
C  2.136877 -2.337893 -0.914659
H 1.059897 0.243182 4.468996
H  0.134896 -1.201141  4.966563
H  1.32321  -1.316947  3.638359
H  0.627062 -0.279262  1.476339
H 0.346526 1.281964 2.298884
H -2.097913  1.113479  1.792551
H -1.826544 -0.469659  1.008937
H -2.824049  1.850254 -0.608257
H -2.338393  0.251058 -1.236842
H -2.162653  2.269303 -2.831862
H -0.773239  2.793385 -1.842511
H  1.429315  0.757575 -3.243965
H  1.006531  1.353835 -1.61734 
H -0.042437 -0.859602 -1.086979
H  0.347366 -1.436575 -2.730497
H  1.869675 -3.137244 -1.620443
H  3.188751 -2.439104 -0.639734
H  1.516918 -2.442387 -0.012366
