30

C  0.367316 -0.961681  4.009369
O -0.533152 -0.15252   3.286621
C -0.333963 -0.15148   1.887358
C -1.377241  0.791758  1.295166
O -1.176426  0.787904 -0.103592
C -1.978689  1.697844 -0.826538
C -1.656911  1.615637 -2.346817
O -0.857135  0.526251 -2.720184
C  0.515506  0.562903 -2.358415
C  0.88632  -0.819621 -1.823416
O  2.234253 -0.747612 -1.396208
C  2.729414 -1.929706 -0.812196
H  1.405717 -0.631171  3.865774
H  0.1031   -0.867937  5.064434
H  0.287553 -2.016052  3.70899 
H -0.46385  -1.162121  1.468518
H 0.676491 0.204126 1.631627
H -1.242974  1.802747  1.710815
H -2.389866  0.441732  1.54984 
H -1.804775  2.727072 -0.471498
H -3.0447    1.465057 -0.66454 
H -2.597383  1.50305  -2.898897
H -1.189824  2.563881 -2.662731
H  1.125766  0.800173 -3.242738
H  0.711678  1.316577 -1.586833
H  0.219683 -1.077811 -0.987208
H  0.763099 -1.576924 -2.613418
H  2.695867 -2.771533 -1.518557
H  3.767317 -1.73831  -0.531914
H  2.15782  -2.202235  0.087208
