30

C  0.920119 -0.882021  3.658616
O -0.242052 -0.566021  2.926124
C -0.055078  0.411557  1.920323
C -1.375391  0.540105  1.168993
O -1.09404   1.353874  0.040896
C -2.03533   1.323471 -1.016578
C -1.365583  1.936942 -2.25332 
O -0.507269  1.036803 -2.920064
C  0.697737  0.682279 -2.260045
C  0.618929 -0.767526 -1.769686
O  1.714046 -0.966501 -0.894412
C  1.837569 -2.280368 -0.396403
H  1.314941e+00 -8.160000e-04  4.183676e+00
H  0.638856 -1.640493  4.391868
H  1.706902 -1.285542  3.00529 
H 0.725475 0.102848 1.208788
H 0.236701 1.378402 2.360215
H -2.203927  0.974221  1.747038
H -1.691389 -0.465585  0.845517
H -2.930859  1.910141 -0.753846
H -2.34624   0.290808 -1.234677
H -2.139056  2.209941 -2.980265
H -0.822631  2.845189 -1.951052
H  1.520585  0.782434 -2.980012
H  0.89702   1.343481 -1.408231
H -0.333548 -0.935005 -1.245123
H  0.667163 -1.461812 -2.623054
H  2.009499 -3.000632 -1.208566
H  2.696779 -2.28677   0.277323
H  0.940083 -2.583407  0.160685
