30

C -1.374291  0.628741  5.739247
O -1.172688  0.022404  4.482227
C -0.960283  0.925218  3.415769
C -0.774478  0.080169  2.159049
O -0.550758  0.982162  1.092133
C -0.364178  0.380835 -0.174496
C -0.180458  1.52702  -1.178848
O -0.462847  1.118419 -2.499913
C  0.598151  0.628149 -3.290459
C  0.794523 -0.88243  -3.11266 
O  1.743368 -1.272739 -4.084881
C  2.032613 -2.652701 -4.113031
H -2.261183  1.277881  5.732647
H -1.524393 -0.176985  6.460375
H -0.501668  1.225378  6.040273
H -0.06202   1.538721  3.588989
H -1.822583  1.598572  3.28888 
H -1.675263 -0.526884  1.979204
H  0.083371 -0.598142  2.287976
H -1.239307 -0.221879 -0.463865
H  0.517778 -0.279534 -0.161176
H -0.895107  2.319464 -0.926281
H  0.835414  1.941708 -1.100924
H  0.328532  0.821963 -4.33516 
H  1.538005  1.154718 -3.067666
H  1.158915 -1.114082 -2.098955
H -0.165308 -1.401303 -3.263341
H  1.134128 -3.245042 -4.335961
H  2.769821 -2.806634 -4.903282
H  2.452202 -2.993165 -3.15585 
