30

C  1.1357778  -0.96416251  3.20662908
O  0.03089607 -0.71415232  2.38585285
C -0.3401641   0.61853132  2.10514098
C -1.61368528  0.65251349  1.24059593
O -1.09472857  1.40265427  0.07781213
C -1.97005996  1.29252436 -1.05765097
C -1.28514054  1.87555719 -2.26490042
O -0.43304251  0.92575092 -2.86766647
C  0.73672258  0.55713062 -2.31952829
C  0.67861428 -0.87346313 -1.68075734
O  1.91255152 -1.17125039 -1.17162754
C  1.80511829 -2.3654626  -0.33449346
H  1.05085159 -0.63626333  4.20415846
H  1.27101697 -2.13271163  3.26152949
H  2.10950914 -0.4975174   2.6739408 
H 0.46799076 1.13210413 1.52648622
H -0.56102344  1.23752358  3.0195676 
H -2.41705857  1.22272553  1.6396503 
H -2.16039507 -0.29389681  0.9551936 
H -2.80283481  1.79200524 -0.96302014
H -2.06813408  0.18023095 -1.29270177
H -1.97467688  2.08873255 -3.06113272
H -0.70268056  2.84766467 -1.92974147
H  1.58567364  0.56599126 -3.11343514
H  1.0449233   1.17415991 -1.60215427
H -0.01760288 -0.76679106 -0.78076948
H  0.15887311 -1.53169179 -2.40621566
H  1.36883249 -3.23416986 -0.90016417
H  2.83942149 -2.69540988  0.0205211 
H  1.18947516 -2.24351322  0.52090646
