30

C -1.68764705  0.59735904  5.68881115
O -1.10677496  0.0475281   4.49809887
C -1.04250775  0.88151053  3.38622875
C -0.59893904  0.10420213  2.11439109
O -0.36876946  1.02425103  1.11778944
C  0.05071915  0.37942639 -0.07326406
C  0.26086007  1.50062538 -1.10692157
O -0.43516064  1.09275462 -2.30054059
C  0.36723782  0.64626238 -3.32739724
C  0.69218652 -0.82562765 -3.11174213
O  1.41771878 -1.2920735  -4.24294027
C  1.81358071 -2.67253183 -4.09385709
H -2.80543016  0.82806705  5.51099678
H -1.61800302 -0.27489789  6.35591108
H -1.13443382  1.50421801  6.13114324
H -0.39948559  1.7420395   3.48595005
H -1.99814223  1.24544886  3.04924074
H -1.41150736 -0.61618692  1.77173675
H  0.25541389 -0.58943216  2.41127506
H -0.73331513 -0.25751016 -0.49073047
H  1.00712238 -0.11165576  0.27719006
H -0.36975565  2.33826832 -0.62742842
H  1.28146342  1.9961727  -1.14191657
H -0.34479715  0.60943178 -4.23155421
H  1.1149368   1.21734208 -3.44749616
H  1.44164688 -0.78760003 -2.32249896
H -0.2279383  -1.19796153 -2.99241159
H  0.88873465 -3.26820233 -4.03403876
H  2.34888717 -2.87620963 -5.02214232
H  2.45042662 -2.72050539 -3.19545681
