30

C  1.22537591 -0.64921025  2.84567357
O  0.09747811 -0.51636232  2.04858781
C -0.66626753  0.64946029  2.37779151
C -1.72826099  0.84835678  1.29709088
O -1.16885785  1.39515021  0.11956849
C -1.95621912  1.28411256 -1.06821439
C -1.16054138  1.78691181 -2.22419545
O -0.30470691  0.8382905  -2.81586663
C  0.87663754  0.44299489 -2.14841598
C  0.64422359 -0.82700661 -1.28636781
O  1.9520716  -1.39040034 -1.18675538
C  1.94467498 -2.73332064 -0.65787615
H  0.93548169 -0.81158039  3.92702579
H  1.8802677  -1.58596343  2.56427176
H 1.7555931  0.40739225 2.94051411
H 0.04301748 1.48469668 2.35179585
H -1.15765404  0.69771355  3.32479401
H -2.51774914  1.61428188  1.68170508
H -2.22169011 -0.1054378   1.1479454 
H -2.97410901  1.83938614 -0.95942548
H -2.26836109  0.20480447 -1.34184605
H -1.79410473  2.25946677 -3.04694915
H -0.51602167  2.64747726 -1.93003191
H  1.61508502  0.2940178  -2.84787334
H  1.16128797  1.23345756 -1.44708601
H  0.11875856 -0.72249756 -0.28641504
H  3.07122794e-04 -1.54407288e+00 -1.91098342e+00
H  1.573304   -3.47094556 -1.44508581
H  3.06010546 -2.96880899 -0.50695451
H  1.40077982 -2.78634247  0.37756614
