30

C  1.21800842 -0.67571236  2.88738809
O  0.00469432 -0.59928422  2.20245218
C -0.56456347  0.69954     2.31389942
C -1.75776847  0.8021256   1.31921058
O -1.19148664  1.29983167  0.13956565
C -1.95286642  1.30968539 -1.07968096
C -1.10930132  1.83619842 -2.25549615
O -0.31958228  0.89178824 -2.85965856
C  0.81497916  0.45324746 -2.18064966
C  0.68459371 -0.85445231 -1.35153272
O  1.97146884 -1.36957747 -1.19007477
C  1.92833602 -2.6138283  -0.59350382
H  1.05230347 -0.44882721  4.01528373
H  1.44058711 -1.74973699  2.72673105
H 2.02715732 0.06260646 2.56232915
H 0.17883683 1.54276296 2.18616655
H -1.01668129  0.86117336  3.36374997
H -2.48816118  1.45444343  1.67891297
H -2.28313654 -0.18822447  1.17504694
H -2.84765213  1.91512304 -1.026837  
H -2.25828779  0.25774689 -1.40048981
H -1.93715527  2.15577628 -2.98538498
H -0.66025073  2.77332534 -1.91367151
H  1.59459465  0.17475579 -3.03591043
H  1.22862545  1.34045227 -1.57113167
H  0.20796603 -0.63758825 -0.34770588
H  0.11233249 -1.51231939 -2.04310684
H  1.3067909  -3.37870191 -1.13210261
H  2.99009798 -3.12812763 -0.47966089
H  1.54289214 -2.55689795  0.45083636
