30

C  0.62698758 -0.78473952  4.0801307 
O -0.46704351 -0.41415096  3.27384734
C -0.12334652  0.36648029  2.04948059
C -1.41078068  0.53773028  1.23445544
O -0.96446817  1.13685839  0.01102933
C -1.98415859  1.24563874 -1.0002488 
C -1.34681094  1.9329374  -2.20412106
O -0.57791426  1.03109866 -2.96461593
C  0.71643096  0.68086671 -2.44891903
C  0.65881449 -0.7412273  -1.87820438
O  1.96264953 -1.03438922 -1.42611288
C  2.10717329 -2.26464449 -0.88884791
H 1.32971654 0.09955899 4.33079643
H  0.14159751 -1.17793941  4.99298342
H  1.28432971 -1.5187867   3.52382684
H  0.50424398 -0.14445715  1.47556992
H 0.29078247 1.33890804 2.35004444
H -2.08453063  1.14490541  1.7815095 
H -1.74248015 -0.49269916  0.97916052
H -2.74295149  1.84920063 -0.64570433
H -2.31316479  0.23906675 -1.38762589
H -2.12390866  2.30945378 -2.84288695
H -0.76749594  2.78790928 -1.9128861 
H  1.46956834  0.6808657  -3.2894969 
H  0.97769394  1.44261239 -1.80586408
H -0.08696583 -0.78630002 -1.0440992 
H  0.41065947 -1.54103157 -2.54665639
H  1.81624173 -3.13658362 -1.6341916 
H  3.10041339 -2.49116049 -0.63686845
H  1.534774   -2.44610873  0.0305232 
