30

C -0.44144338 -0.44253612  4.11165365
O  0.72626617 -0.4266896   3.27393531
C 0.70728623 0.25465648 2.01041213
C -0.73991247  0.60708624  1.50219392
O -0.52277439  1.16441975  0.22316812
C -1.70780156  1.34135163 -0.55265013
C -1.24648103  1.98810078 -1.90748072
O -0.78217055  1.02595927 -2.80466297
C  0.53724152  0.53816582 -2.58846175
C  0.53971615 -0.88300076 -2.10878667
O  1.88519624 -1.28417029 -1.98533076
C  2.05153559 -2.53733723 -1.38628731
H -1.12302939 -0.95060007  3.63284465
H -0.02942674 -0.98110871  5.02979766
H -0.8344246   0.55538929  4.37870185
H  1.1926033  -0.32645381  1.27017524
H 1.33236653 1.21246648 2.17044401
H -1.29358292  1.41029566  2.14379714
H -1.33960133 -0.31910925  1.37322469
H -2.39421611  1.99558709 -0.08136012
H -2.26495457  0.34343433 -0.69839657
H -2.10294742  2.44725634 -2.39320416
H -0.52871913  2.73090878 -1.61067841
H  1.21780742  0.67900487 -3.52687663
H  1.03272274  1.11462941 -1.82735678
H -0.0516112  -0.90845869 -1.1582296 
H -0.07815806 -1.46088773 -2.92547235
H  1.38712058 -3.3484443  -1.82903738
H  3.0958667  -2.85938392 -1.29797929
H  1.68090443 -2.59547056 -0.29089757
