30

C -0.47098626 -0.48338689  4.0590894 
O  0.71830765 -0.38123753  3.21612695
C 0.68651282 0.27641978 1.98756674
C -0.6880796  0.6921949  1.4986686
O -0.50510361  1.21306889  0.19139421
C -1.62495381  1.3331842  -0.5552972 
C -1.24062542  1.98235999 -1.84188826
O -0.80759046  0.96367354 -2.75837134
C  0.50683314  0.55707341 -2.52962171
C  0.46622685 -0.91336301 -2.05385184
O  1.86723454 -1.2697518  -2.02508196
C  2.06434306 -2.53317428 -1.36001263
H -1.14621958 -1.09135417  3.62790566
H -0.26282655 -0.94838381  4.99675286
H -0.92186756  0.44030687  4.25168497
H  1.09977423 -0.37286836  1.20747136
H 1.40821185 1.21286011 2.11894846
H -1.11350279  1.44789397  2.1044361 
H -1.28669032 -0.27986705  1.49261775
H -2.37320569  1.98654539 -0.04584128
H -2.13627905  0.35575031 -0.73825283
H -1.88366596  2.40798614 -2.37287353
H -0.26987724  2.6535347  -1.82236291
H  1.05126978  0.68754018 -3.59099942
H  1.02857107  1.08591865 -1.73997479
H  0.0881158  -0.97722698 -1.0187935 
H -0.1858402  -1.50010388 -2.77098528
H  1.62061009 -3.34958859 -1.82621482
H  3.17490391 -2.76938958 -1.37774613
H  1.77072625 -2.50894652 -0.34806996
