30

C  0.22456385 -0.72169053  4.33080795
O -0.68530635 -0.48089421  3.35449376
C -0.27365448  0.29634165  2.26262617
C -1.4290739   0.48610602  1.31147703
O -0.98879593  1.12921445  0.18071997
C -1.90584645  1.28827368 -0.87064925
C -1.23706572  1.90931523 -2.07972313
O -0.72240358  0.96252614 -2.97395564
C  0.56729357  0.48965298 -2.87659487
C  0.81015438 -0.61956306 -1.87268547
O  2.04893221 -1.20031221 -2.13162934
C  2.38887112 -2.23546018 -1.26339086
H 0.52628598 0.2278861  4.82593271
H -0.20869779 -1.43349807  5.14729012
H  1.24060071 -1.17244871  3.8794761 
H  0.57046885 -0.26462021  1.81458477
H 0.13933699 1.19920285 2.54550795
H -2.08935785  1.06569102  1.82270152
H -1.7777285  -0.62843442  1.15137077
H -2.74762258  1.92087418 -0.49424785
H -2.31362206  0.31192572 -1.26830055
H -1.90511406  2.5393762  -2.57873796
H -0.42863274  2.58099424 -1.76822396
H  0.83281843  0.12293428 -3.861482  
H  1.33826662  1.26461527 -2.69603596
H  0.69889504 -0.20604113 -0.91327585
H  0.05351827 -1.41707105 -1.9373418 
H  1.63267531 -2.96323041 -1.2077716 
H  3.30481713 -2.73980087 -1.68074775
H  2.64568768 -1.78674981 -0.26120452
