30

C -0.64963459 -1.35580213  4.35196073
O -0.42595427 -0.24241839  3.49477219
C -0.89367371 -0.49469597  2.16949379
C -0.81811102  0.82178072  1.47379865
O -1.30932417  0.53438253  0.18241841
C -1.27050168  1.64301591 -0.76772381
C -1.85951917  1.2259162  -2.102249  
O -1.12530073  0.07946174 -2.64342148
C  0.23379836  0.2309218  -2.96290272
C  1.08473254 -0.66672549 -1.97541939
O  2.36313526 -0.14909786 -2.16438836
C  3.31813731 -0.74545947 -1.25197897
H  0.05591795 -2.233294    4.13638703
H -0.40011021 -1.06440764  5.38694089
H -1.60465182 -1.75545036  4.28352344
H -1.91786481 -0.96979839  2.13577822
H -0.16160695 -1.28775563  1.76852916
H 0.24750179 1.32719176 1.39407873
H -1.54131543  1.62421336  1.86878586
H -0.21519535  2.06723507 -0.74938877
H -1.86272957  2.39800449 -0.35576854
H -2.99948109  0.95150747 -1.9050522 
H -1.80020916  2.08491792 -2.82872207
H  0.32593137 -0.04281606 -4.09661487
H  0.63617167  1.22866935 -2.95147258
H  0.6501835  -0.6488272  -1.03831316
H  1.07524648 -1.77507023 -2.12807819
H  3.52373768 -1.87464015 -1.59256689
H  4.1436798  -0.14553667 -1.17558388
H  2.81241423 -0.94733094 -0.19145367
