30

C 0.4658551  0.1570361  4.41067491
O -0.58739478  0.13508861  3.4628386 
C -0.28160787 -0.18451527  2.15241351
C -1.45018807  0.05016132  1.23550926
O -0.99523915  0.81244334  0.14746375
C -1.88216431  1.12238264 -0.89549547
C -1.22654156  2.01805527 -1.88715113
O -0.41379488  1.33312979 -2.82124197
C  0.82472118  0.85133744 -2.32559777
C  0.72273961 -0.64892525 -2.09601141
O  2.06718431 -1.1160958  -1.81864039
C  2.10632696 -2.45114625 -1.42739494
H 1.2651334 0.9290534 4.152353 
H -0.05589711  0.42884383  5.34083442
H  0.84403694 -0.8780118   4.40491255
H  0.08379814 -1.29129702  2.15037211
H 0.65078846 0.30838635 1.85811401
H -2.23821538  0.54816577  1.77785363
H -1.95258329 -0.87946154  0.78144447
H -2.8027777   1.55295041 -0.47926608
H -2.14093264  0.17586886 -1.43530614
H -2.07539966  2.30631114 -2.48320724
H -0.74887998  2.86693002 -1.34688637
H  1.57866355  1.02485943 -3.17001369
H  1.06460018  1.18261529 -1.29565437
H -0.04046556 -0.98826492 -1.32908847
H  0.33307521 -1.17751033 -2.98443776
H  1.92236259 -3.05550011 -2.2653151 
H  3.09001197 -2.61761483 -1.11712893
H  1.54583239 -2.6309825  -0.45690522
