30

C  1.13089512 -0.7639796   3.0022623 
O -0.03777346 -0.64447515  2.28556366
C -0.56730666  0.72401277  2.27314018
C -1.66981896  0.77478717  1.21013142
O -1.0734346   1.35427311  0.06862842
C -1.99223386  1.34736645 -1.00561827
C -1.19720038  1.85346014 -2.27409475
O -0.40019406  0.87773423 -2.86191032
C  0.795885    0.50866294 -2.19880415
C  0.67292931 -0.80471533 -1.41097443
O  1.96178513 -1.39242619 -1.23992596
C  2.01812551 -2.56740983 -0.5159096 
H  0.9113325  -0.53441965  4.12612644
H  1.46708945 -1.84027831  2.80513864
H  1.89803157 -0.1628466   2.60460421
H 0.24682558 1.3861247  2.05955462
H -1.06012433  0.94546232  3.27029742
H -2.57253081  1.26622764  1.65456801
H -1.95190633 -0.28201331  1.15339213
H -2.83860787  1.92626155 -0.92220473
H -2.25136594  0.34483237 -1.37312761
H -1.89676437  2.07710173 -3.03863617
H -0.69480774  2.69545629 -1.82410646
H  1.60144788  0.35323705 -2.9080839 
H  1.15058685  1.24637139 -1.51368726
H  0.10372844 -0.60701463 -0.47522866
H  0.05040493 -1.52862416 -1.91813339
H  1.42337746 -3.34830233 -0.96699835
H  3.05580817 -2.86006039 -0.48438561
H  1.7210637  -2.48999723  0.56312036
