30

C  0.94232748 -1.13838519  3.42636228
O -0.00845687 -0.83761451  2.45629563
C -0.03524824  0.50481283  1.87248278
C -1.36969996  0.6790476   1.20932492
O -1.08692425  1.39430994 -0.02585221
C -1.9952094   1.36179513 -1.06127405
C -1.3878065   1.87312063 -2.31043374
O -0.56766374  1.00347856 -2.96850615
C  0.64751933  0.57409356 -2.32779961
C  0.61368629 -0.80832992 -1.65853884
O  1.7375312  -0.97493363 -0.91011388
C  1.84835408 -2.13301195 -0.10030408
H  0.78266176 -0.48434533  4.29215783
H  0.82006315 -2.28825016  3.67431576
H  1.96510737 -1.10949481  2.99545777
H 0.84282463 0.79465822 1.33679765
H -0.0502462   1.24219481  2.69449412
H -1.99413429  1.13337594  1.91273261
H -1.7931937  -0.24606483  0.97940847
H -2.86177079  1.8470302  -0.7735824 
H -2.00148856  0.21552705 -1.18470697
H -2.21645876  2.16861949 -3.01492545
H -0.70038011  2.7352387  -2.0857273 
H  1.43237754  0.46092617 -3.16641597
H  1.06958762  1.39290138 -1.61461254
H -0.36592576 -0.95210106 -1.23428493
H  0.63802463 -1.41977281 -2.6011827 
H  1.99664944 -3.04521146 -0.74767401
H  2.79324952 -1.87458032  0.58126267
H  0.98631834 -2.31241313  0.58062468
