30

C  0.61560325 -0.52411163  4.14562147
O -0.44715363 -0.48814216  3.23562507
C -0.15121472  0.1637012   2.07100087
C -1.42495827  0.41455848  1.24042847
O -0.99746433  1.1190187   0.0575729 
C -1.99167286  1.25048942 -0.98162016
C -1.34137043  1.95735427 -2.15003082
O -0.5195189   1.09566179 -2.97847959
C  0.70974     0.72751123 -2.43172645
C  0.69168885 -0.72639437 -1.91526123
O  1.98744958 -1.09306766 -1.56091169
C  2.11437641 -2.41452714 -1.00613071
H 0.82152232 0.49010723 4.53065829
H  0.30582688 -1.16340662  4.98919906
H  1.49855564 -1.06007779  3.76811406
H  0.52238419 -0.3166815   1.36245083
H 0.44736811 1.11103564 2.3231679 
H -2.10683572  1.11177958  1.83758403
H -1.98477298 -0.43592478  1.06651285
H -2.67274393  1.86133091 -0.55708198
H -2.46260045  0.32250185 -1.29728599
H -2.13707372  2.31649027 -2.87214048
H -0.60077265  2.71228981 -1.74136638
H  1.46915396  0.79347655 -3.28454078
H  1.03411518  1.33302457 -1.60644518
H -0.02970498 -0.82297007 -1.08636743
H  0.32317939 -1.34184347 -2.74436514
H  1.99421467 -3.32047288 -1.76984857
H  3.2202714  -2.54292337 -0.70068421
H  1.42454446 -2.61580473 -0.16856129
