30

C  1.38687212 -0.2697547   2.92992476
O  0.21077763 -0.34115493  2.05386507
C -0.88067359  0.44153393  2.44871299
C -1.84163132  0.62381768  1.28557088
O -1.14610871  1.16011862  0.20098613
C -1.83117402  1.3143479  -1.02539907
C -0.87962426  1.90588832 -2.04997513
O -0.37976634  0.91352789 -2.8859436 
C  0.85559236  0.32265098 -2.53339405
C  0.6829906  -0.79297088 -1.47522752
O  1.82949362 -1.59957589 -1.52673194
C  1.83012618 -2.67092198 -0.51989991
H  0.97375364 -0.63366047  3.89662252
H  2.15060592 -0.95753682  2.50348321
H 1.78684383 0.74752919 2.9137942 
H -0.51110947  1.38984626  2.89637423
H -1.53937180e+00 -2.02920138e-03  3.33002954e+00
H -2.63467269  1.33008675  1.59289907
H -2.45453181 -0.2861193   1.1926842 
H -2.63171129  2.00077417 -0.67822644
H -2.20928653  0.32170222 -1.42000282
H -1.44392584  2.55403384 -2.66826128
H -0.0270967   2.43790515 -1.59359871
H  1.2050358  -0.19959804 -3.3506374 
H  1.51312023  1.10812735 -2.26560509
H  0.47527611 -0.38029698 -0.45148576
H -0.21236806 -1.34382019 -1.71153609
H  0.78611718 -3.22040047 -0.571132  
H  2.65243535 -3.30112101 -0.70230772
H  1.95499248 -2.21674652  0.48794062
