30

C -0.1260009  -0.35643617  5.00000602
O -0.99687123 -0.25915464  3.84576222
C -0.53480818  0.50253107  2.81791091
C -1.47228034  0.32890068  1.6254035 
O -0.90892612  1.13469716  0.53348634
C -1.56648495  0.94586181 -0.67831318
C -0.84223986  1.78910739 -1.76485617
O -0.7303617   1.11884233 -3.01031518
C  0.54180447  0.51638168 -3.34795285
C  0.8665788  -0.66060762 -2.38222631
O  1.98605486 -1.2734971  -2.95096183
C  2.50764324 -2.38421121 -2.21262562
H 0.03812421 0.6499595  5.50170031
H -0.57568141 -1.008084    5.7338585 
H  0.90257556 -0.79687894  4.71473151
H 0.46668273 0.20910018 2.57416334
H -0.44800877  1.50786473  3.12132563
H -2.4665051   0.68863086  1.83696513
H -1.46367659 -0.72286272  1.42519535
H -2.66936058  1.15959611 -0.78466329
H -1.42453309 -0.10646474 -0.9923753 
H -1.41749413  2.81958552 -1.99994957
H  0.13578082  2.02633048 -1.38958652
H  0.52215777  0.06455276 -4.3536672 
H  1.3416558   1.32690115 -3.30487943
H  1.14653653 -0.20781239 -1.39063139
H  0.0769316  -1.29387504 -2.16433196
H  1.70602017 -3.19110553 -2.20872516
H  3.38257494 -2.71438441 -2.82769177
H  2.93407684 -2.02536872 -1.1845614 
