30

C  0.53180371 -0.73757272  4.11100325
O -0.52172863 -0.40866688  3.27265507
C -0.17112779  0.19981068  2.06120655
C -1.45177857  0.36869239  1.23769187
O -1.10288339  1.06433636  0.12156346
C -2.0176331   1.15455902 -0.962784  
C -1.35616448  1.92957941 -2.13378134
O -0.49356169  1.1376205  -2.90674012
C  0.74806428  0.79799018 -2.38928836
C  0.68147239 -0.6913928  -1.97870025
O  2.05998918 -0.97050309 -1.58272519
C  2.30689424 -2.19960493 -1.05432445
H  1.21695692 -1.6334239   3.7976317 
H 1.22838971 0.09771814 4.26735568
H  0.04651232 -0.94136861  5.10492173
H  0.58348294 -0.48072117  1.42272351
H 0.24289182 1.16948218 2.21221591
H -2.23452593  0.93436308  1.78422508
H -1.997974   -0.52190287  1.02757709
H -2.90770734  1.7251848  -0.62736886
H -2.40009207  0.16281852 -1.30220001
H -2.16191693  2.19926975 -2.74634881
H -0.73829806  2.79052622 -1.72530677
H  1.56999385  0.91543745 -3.18413038
H  0.98219959  1.38203979 -1.60058709
H -0.00818431 -0.82026766 -1.16101902
H  0.4639466  -1.34984655 -2.91256449
H  1.98050941 -2.97172699 -1.71219879
H  3.33543246 -2.26734237 -0.8309749 
H  1.62112922 -2.27051819 -0.21281019
