30

C  1.36901906 -0.34818212  2.88467277
O  0.27063661 -0.29438758  2.0385685 
C -0.82213986  0.39827631  2.41940336
C -1.82570156  0.54254665  1.27478608
O -1.20151275  1.23807639  0.14606985
C -1.86167665  1.3250507  -1.03692999
C -0.92129061  1.89700909 -2.06290635
O -0.33823221  0.91090137 -2.88981203
C  0.86551011  0.31510169 -2.43339763
C  0.66876392 -0.73095342 -1.39215273
O  1.76077401 -1.64549936 -1.48450066
C  1.79875664 -2.64100469 -0.48145443
H  1.31420164 -1.05527315  3.81690881
H  2.25865584 -0.72609105  2.20437589
H 1.47304325 0.68788321 3.31575635
H -0.62542894  1.31427608  2.83235958
H -1.30739753 -0.09900126  3.33724062
H -2.55223046  1.35647188  1.49663394
H -2.07484352 -0.4004205   0.95641779
H -2.69538216  2.00089761 -0.89725442
H -2.3080375   0.34934221 -1.2908293 
H -1.44066457  2.52578626 -2.85290223
H -0.06796384  2.50408386 -1.64040909
H  1.49014801 -0.11623189 -3.34755781
H  1.48226547  1.11819557 -1.96939761
H  0.49498164 -0.21884587 -0.33920267
H -0.23267628 -1.32975243 -1.67457786
H  0.85368523 -3.25217473 -0.62315901
H  2.59016481 -3.28143815 -0.84155507
H  2.10568845 -2.37148937  0.64796357
