30

C 0.42443864 0.33643585 4.31409904
O -0.64606793  0.34537193  3.40974544
C -0.33747718 -0.32365583  2.20586528
C -1.44256613 -0.08290276  1.21312885
O -0.97776511  0.73018086  0.16739438
C -1.89681684  1.12192206 -0.80458617
C -1.19895626  2.05260871 -1.79809338
O -0.38451918  1.36951979 -2.71819526
C  0.83480804  0.84335784 -2.23653061
C  0.75411124 -0.66887085 -2.08293003
O  2.0774375  -1.08973615 -1.8907641 
C  2.17152808 -2.46813699 -1.56242701
H 1.29985347 0.97927897 4.01467956
H 0.04880853 0.80103119 5.28470706
H  0.77554954 -0.60501861  4.5075206 
H -0.26432762 -1.35937395  2.34180309
H  0.65334211 -0.07965558  1.87284109
H -2.34953513  0.34064769  1.69021382
H -1.70158224 -1.06414413  0.80807435
H -2.66831222  1.67015121 -0.34273028
H -2.19172315  0.11065567 -1.34241378
H -1.93304016  2.47870677 -2.36990343
H -0.61810388  2.79809396 -1.24585209
H  1.6747423   0.97848029 -2.98938837
H  1.2000566   1.24778738 -1.2719186 
H  0.14165362 -1.05384123 -1.27096552
H  0.35163652 -1.21614476 -2.93325071
H  1.69538912 -3.04469878 -2.43645383
H  3.13584055 -2.70996376 -1.45364958
H  1.58525315 -2.75493123 -0.69713916
