30

C  1.12551246 -0.95227317  3.45091121
O -2.55932863e-04 -7.95803165e-01  2.58819470e+00
C -0.05355817  0.42430739  1.90145587
C -1.41143545  0.46925388  1.0172593 
O -1.18795167  1.46621243  0.06922536
C -2.03935086  1.36855738 -1.07068867
C -1.32278752  2.00399073 -2.27178931
O -0.48410824  0.98714658 -2.90588426
C  0.68488041  0.69149083 -2.25212492
C  0.58061524 -0.80986314 -1.6753398 
O  1.70770306 -1.01172321 -0.82789852
C  1.64102231 -2.2103217  -0.10514178
H  1.22570895 -0.09543289  4.20652862
H  1.04483333 -1.93393976  4.01315101
H  1.98153444 -1.00712961  2.65343528
H 0.86948058 0.59893348 1.28182852
H -0.07972614  1.29329647  2.60230707
H -2.29861808  0.76146845  1.63309772
H -1.57792886 -0.5422942   0.59188151
H -2.99686617  1.72916538 -0.89737318
H -2.27095466  0.24206211 -1.16572475
H -2.05001073  2.31029263 -3.04053504
H -0.7071651   2.88193338 -1.88618627
H  1.6299206   0.95219604 -2.82961591
H  0.9299891   1.49024274 -1.45843252
H -0.35041386 -0.92741737 -1.27538718
H  0.4984918  -1.47335243 -2.52268518
H  1.6968985  -3.11891692 -0.79054032
H  2.39208227 -2.22391224  0.52781912
H  0.71950443 -2.03971595  0.48964437
