30

C  0.45966564 -0.63480387  4.26405515
O -0.50777597 -0.41626499  3.22109292
C -0.01320732  0.24945686  2.05756156
C -1.34129331  0.43988066  1.24105668
O -0.97991613  1.0811172   0.01511392
C -1.98890497  1.1520197  -0.9713419 
C -1.38573532  1.93151993 -2.12416223
O -0.52967726  1.13153352 -2.90966065
C  0.74537347  0.73721227 -2.42714183
C  0.68932118 -0.72414116 -1.865381  
O  2.04017451 -1.04494619 -1.51559384
C  2.2984273  -2.37502602 -1.11758368
H  1.40056474 -0.050977    4.13398427
H  0.03659183 -0.43681598  5.23174267
H  0.71157528 -1.73180392  4.24480962
H  0.67252993 -0.34396117  1.46643432
H 0.53765034 1.27579078 2.26364371
H -2.10009196  1.03881351  1.77660056
H -1.85720759 -0.47178591  0.9617868 
H -2.92012216  1.69692578 -0.55629901
H -2.38516548  0.2074741  -1.22283661
H -2.26400584  2.33706784 -2.71192758
H -0.78012368  2.77282822 -1.72313312
H  1.41067029  0.63151089 -3.32110025
H  1.25712994  1.44695137 -1.69590634
H  0.0210075  -0.78629886 -1.00565992
H  0.36418335 -1.44413665 -2.55142637
H  1.93652366 -3.20011925 -1.90034506
H  3.25435981 -2.36323617 -0.83165265
H  1.7398735  -2.63651783 -0.18037677
