30

C 0.46460482 0.29525134 4.32030338
O -0.5494404   0.24471746  3.36116344
C -0.27210992 -0.38127917  2.12583715
C -1.49430948 -0.04274704  1.21083306
O -0.98515536  0.80978856  0.17136345
C -1.9125111   1.11855318 -0.8595868 
C -1.17867404  2.08410857 -1.83856555
O -0.44455589  1.34093079 -2.74692012
C  0.82790069  0.87112685 -2.25291458
C  0.730094   -0.68812176 -2.1298737 
O  1.98841083 -1.13555688 -1.76794739
C  2.20859481 -2.45298747 -1.41442949
H 1.40789183 0.98048506 4.17669677
H -0.10012695  0.64710469  5.19919132
H  0.85372169 -0.76200434  4.48097718
H -0.15187308 -1.39235466  2.31482049
H 0.50356641 0.13551097 1.71152193
H -2.28546566  0.37980229  1.81668738
H -1.88003492 -0.99942912  0.75914837
H -2.82400663  1.58071411 -0.50456922
H -2.23882074  0.2069591  -1.37944271
H -1.94288247  2.69461521 -2.39439641
H -0.61308462  2.87346544 -1.28338187
H  1.63278738  1.28507243 -2.98139825
H  1.16498927  1.37509433 -1.34462258
H -0.01886552 -0.76866907 -1.31065474
H  0.51682412 -1.09028823 -3.09796858
H  2.00629833 -3.07374837 -2.29298609
H  3.24517504 -2.6093285  -1.08189398
H  1.46512306 -2.71890918 -0.60719142
