30

C  0.59475228 -0.59944582  4.17781098
O -0.43802704 -0.49104044  3.24984446
C -0.12727227  0.26442532  2.12949953
C -1.44552343  0.4554152   1.24477507
O -1.0046937   1.06531222  0.06770771
C -2.01002704  1.23721927 -0.98540683
C -1.32876022  1.93987018 -2.19873391
O -0.49504917  1.15385489 -3.03982348
C  0.66331027  0.67150217 -2.50702252
C  0.66764999 -0.72476265 -1.91910786
O  1.99022978 -1.03567099 -1.49628607
C  2.10580208 -2.33293124 -0.94627075
H 1.32532637 0.32732901 4.13179396
H  0.19940962 -0.81360871  5.17580285
H  1.09626979 -1.41351559  3.92583096
H  0.61070829 -0.23641974  1.52826784
H 0.30330655 1.20696038 2.347753  
H -2.159957    1.11675179  1.7736437 
H -1.78487857 -0.55885809  1.09071115
H -2.82576168  1.91700787 -0.75757623
H -2.22992986  0.27077213 -1.21630184
H -2.13947828  2.34811665 -2.7799058 
H -0.7056525   2.7495646  -1.75714881
H  1.44640356  0.85204979 -3.11356409
H  0.9895707   1.41037217 -1.70122493
H  0.02659027 -0.83330412 -1.16880713
H  0.32607692 -1.37925221 -2.84557651
H  1.78781729 -3.15982161 -1.63476804
H  3.20271587 -2.57534994 -0.66608307
H  1.5999587  -2.35682508 -0.03611564
