30

C  1.35694866 -0.17921382  2.93631485
O  0.40933651 -0.01464424  1.93911236
C -0.8912315   0.23679363  2.42853701
C -1.81055201  0.63144794  1.30590041
O -1.1180948   1.11491025  0.17057685
C -1.84764026  1.4662241  -1.00215813
C -0.8181016   1.92614998 -2.09026466
O -0.48575736  0.83433051 -2.91675125
C  0.7785266   0.16555245 -2.66720494
C  0.68532447 -0.78506269 -1.46256211
O  1.77841809 -1.71762772 -1.52036229
C  1.77928141 -2.5887975  -0.44087519
H  1.14771213 -1.05785421  3.59404415
H  2.34303741 -0.24312687  2.46637036
H 1.38116841 0.65369271 3.59554966
H -0.72917255  1.05676211  3.19934455
H -1.2774393  -0.65137366  2.89574395
H -2.60853956  1.36343114  1.72760304
H -2.39633126 -0.23047326  0.97926684
H -2.57610383  2.3340598  -0.90865802
H -2.24324156  0.45610051 -1.35153343
H -1.35865291  2.6299909  -2.68864199
H  0.10126604  2.25707954 -1.63373996
H  1.01950006 -0.25602358 -3.58903224
H  1.57707065  0.98511234 -2.35866854
H  0.73876873 -0.30644601 -0.44251687
H -0.35401716 -1.18782061 -1.54547741
H  0.90701749 -3.20422583 -0.32835177
H  2.69760125 -3.13535748 -0.46586427
H  1.79205104 -1.96201421  0.58017203
