30

C -0.16525697 -0.2722169   4.96104236
O -0.99984211 -0.25924432  3.84531373
C -0.41177203  0.46620478  2.79054419
C -1.36847413  0.28556713  1.60777278
O -0.89570706  1.06836     0.5089417 
C -1.58352881  0.91950516 -0.70544674
C -0.85539539  1.79411309 -1.76057594
O -0.76670925  1.15996705 -3.00016486
C  0.50343872  0.55538726 -3.27241128
C  0.81849732 -0.65100014 -2.40611834
O  2.059054   -1.21510481 -2.86294319
C  2.4482627  -2.43274044 -2.22108461
H -0.17040827  0.73047699  5.34796916
H -0.79078074 -0.75809073  5.73453161
H  0.79599371 -0.76364002  4.86211407
H 0.60044029 0.12237413 2.51290168
H -0.36249651  1.64262487  3.04624937
H -2.3412314   0.65063308  2.08281756
H -1.42787823 -0.77262625  1.30224146
H -2.65014098  1.19905912 -0.54568535
H -1.60558308 -0.15783763 -1.08881222
H -1.31615412  2.7939049  -1.79021763
H  0.16234502  1.89732707 -1.36624667
H  0.53048728  0.33880352 -4.27026938
H  1.30457638  1.31412059 -3.1051559 
H  0.9210195  -0.45513436 -1.40938144
H  0.01509724 -1.38758622 -2.4494827 
H  1.68279337 -3.12004777 -2.29220401
H  3.21974946 -2.77016526 -2.83126094
H  2.67016004 -2.25778658 -1.1428719 
