30

C 0.93720844 0.58984193 2.28165093
O -0.11198646 -0.08819883  2.92349514
C -0.94821899 -0.99939446  2.21032445
C -1.89233762 -0.26097538  1.25504635
O -1.22037572  0.66456796  0.4082513 
C -1.95451579  1.09153513 -0.77018047
C -1.12900252  2.06821813 -1.54137683
O -0.17392414  1.44229778 -2.35818677
C  0.9943121   0.93108414 -1.73113821
C  0.97061519 -0.58213279 -1.59404196
O  2.12928288 -0.90082478 -0.82008402
C  2.25846771 -2.26591307 -0.5725145 
H 0.66445164 1.60935775 1.80537647
H 1.71209185 0.66813688 3.07103948
H 1.3306444  0.02728084 1.47463646
H -1.44160739 -1.43947133  3.03243413
H -0.42746164 -1.79503088  1.63010337
H -2.68516796  0.26055297  1.79300997
H -2.44334491 -1.1341388   0.73788188
H -2.86614461  1.6405948  -0.39624006
H -2.2094055   0.26808038 -1.4709326 
H -1.81434674  2.70902277 -2.15042173
H -0.63971662  2.83865473 -0.78262401
H  1.89390396  1.22344087 -2.39442289
H  1.21914328  1.34243731 -0.69136008
H  0.20167688 -0.88690761 -1.00356619
H  0.87089246 -1.0311658  -2.59246479
H  2.42416302 -2.70596505 -1.6184105 
H  3.13781816 -2.34260499  0.09034513
H  1.28177496 -2.70105148 -0.14100121
