30

C  0.22411692 -0.65938803  4.40470956
O -0.66125974 -0.56268717  3.34850147
C -0.23459347  0.25594066  2.28189171
C -1.47439915  0.45322151  1.34485573
O -0.99181524  1.16147915  0.21906457
C -1.8697156   1.27219586 -0.88531403
C -1.13827558  1.92113425 -2.00337527
O -0.72378226  1.01550025 -3.07348671
C  0.53640256  0.46143714 -3.0173645 
C  0.77975951 -0.59777243 -1.90484007
O  1.99136393 -1.17244801 -2.1552562 
C  2.36634832 -2.19929512 -1.21702244
H 0.44445127 0.24675625 4.94448   
H -0.19974558 -1.38283407  5.12833477
H  1.19897242 -1.14741283  4.02089205
H  0.627911   -0.28548126  1.66510007
H 0.02416038 1.23038855 2.67272519
H -2.24367213  0.90712214  1.99162556
H -1.78284459 -0.60134068  1.07605927
H -2.76781528  1.80811148 -0.60454268
H -2.19489664  0.21524471 -1.29346904
H -1.83448217  2.55288273 -2.44024656
H -0.25721814  2.56578268 -1.68360167
H  0.60065277 -0.0166567  -4.04097584
H  1.38431704  1.1411754  -2.97611632
H  0.74004731 -0.03403258 -0.91682982
H  0.10126412 -1.46569739 -1.87720427
H  1.57883222 -3.02507932 -1.09886335
H  3.24036787 -2.73364376 -1.4987972 
H  2.4480699  -1.76760743 -0.19998472
