30

C  0.60627825 -0.72322625  4.0074566 
O -0.44353655 -0.41281129  3.13493083
C -0.07581816  0.33026605  2.03433902
C -1.36285593  0.42492784  1.23872362
O -1.01122992  1.12253737  0.0224297 
C -1.97905718  1.26723694 -0.93629076
C -1.37053126  1.91082215 -2.15332163
O -0.52690865  1.13661706 -2.95547058
C  0.68170929  0.67811222 -2.46276923
C  0.68117738 -0.72875113 -1.89729847
O  1.97587192 -1.07040515 -1.49608658
C  2.07517249 -2.33492776 -0.76961968
H 1.01589321 0.23691694 4.53332889
H  0.07015172 -1.23476219  4.87391446
H  1.50596275 -1.25133031  3.65123505
H  0.81671547 -0.09020163  1.52679696
H 0.25340747 1.33853152 2.28464926
H -2.13081056  1.03095078  1.65035721
H -1.78860789 -0.63132497  1.12432419
H -2.94194431  1.82867443 -0.56244226
H -2.41124201  0.29876684 -1.15530732
H -2.027669    2.26659872 -2.89766616
H -0.84727104  2.59403686 -1.72939281
H  1.3673413   0.47005012 -3.30144494
H  1.16499535  1.33229643 -1.66547385
H -0.06068245 -0.79926266 -1.04858179
H  0.33468049 -1.47748383 -2.6234741 
H  1.7435248  -3.00170647 -1.47917156
H  3.07365634 -2.59549558 -0.53277653
H  1.39587641 -2.32356934  0.04056345
