30

C  1.37665783 -0.2835613   2.92209334
O  0.35431459 -0.31417817  2.02023612
C -0.85295796  0.35486061  2.45740277
C -1.82091015  0.54406602  1.20550125
O -1.08200102  1.16634123  0.13613074
C -1.85759996  1.40941004 -1.06331774
C -0.89910578  1.92219142 -2.07693378
O -0.39050042  0.90191985 -2.93960245
C  0.80521752  0.22334748 -2.56682414
C  0.6309203  -0.73106088 -1.38793872
O  1.74894195 -1.5996507  -1.44871   
C  1.78606183 -2.55898742 -0.43374125
H  1.2206435  -0.83408339  3.86337273
H  2.23356025 -0.89719798  2.42532525
H 1.75424701 0.74601741 3.13473105
H -0.54828903  1.34783186  3.01800111
H -1.34130308 -0.25622388  3.23501976
H -2.60171064  1.2111175   1.51782291
H -2.26385489 -0.43213784  0.93096723
H -2.73694252  2.10998406 -0.65684622
H -2.32316022  0.56769474 -1.33496177
H -1.40293983  2.5901009  -2.78385567
H -0.08555376  2.39572971 -1.53606849
H  1.1978817  -0.27168727 -3.4940136 
H  1.55207933  1.06459695 -2.23144969
H  0.50857418 -0.18820255 -0.41164593
H -0.2590956  -1.30318569 -1.64921927
H  0.75447779 -3.12488277 -0.3848923 
H  2.57621477 -3.3066006  -0.69547763
H  1.93059129 -2.13994009  0.58752415
