30

C  0.49241014 -0.75456663  4.16039733
O -0.53276063 -0.41895266  3.27057456
C -0.11452554  0.37000641  2.1446563 
C -1.36206515  0.5165775   1.29635283
O -0.98781074  1.14141206  0.05593043
C -2.01827403  1.25888901 -0.96118308
C -1.37823212  1.89041653 -2.16958587
O -0.57344323  1.07436591 -2.97714347
C  0.71737658  0.7217965  -2.47552069
C  0.68692517 -0.74711801 -1.97533277
O  2.02389333 -1.01374943 -1.58515382
C  2.23642984 -2.27770581 -1.00508178
H  1.44534522 -0.56732756  3.8106305 
H  0.28134824 -0.14818023  5.04503366
H  0.44545697 -1.82384303  4.32619312
H  0.52963627 -0.20370224  1.58041457
H 0.2825515  1.36065956 2.50071085
H -2.10829313  1.06358985  1.86012706
H -1.86591433 -0.48277403  1.03822519
H -2.91335929  1.85929119 -0.72429587
H -2.3290024   0.2446165  -1.41276081
H -2.20178374  2.17342102 -2.78420098
H -0.80285347  2.81355397 -1.844733  
H  1.45004342  0.84117231 -3.22249627
H  1.01624241  1.3027833  -1.49632354
H  0.06453578 -0.95783547 -1.1105294 
H  0.40825948 -1.27771068 -2.79696149
H  1.9205825  -3.0791701  -1.67989211
H  3.35025214 -2.31552025 -0.74636919
H  1.71382215 -2.30520509 -0.04600334
