30

C  0.24157543 -0.72334115  4.41509268
O -0.69063385 -0.5423986   3.36012182
C -0.30576263  0.39338889  2.32255021
C -1.46594889  0.4952007   1.33486023
O -0.93916255  1.1065494   0.19706107
C -1.84526428  1.13575802 -0.87927045
C -1.10769025  1.90889344 -1.9782085 
O -0.70184597  1.04429748 -3.03820453
C  0.57068923  0.45118604 -3.03353878
C  0.68247656 -0.59469929 -1.90751327
O  1.97855328 -1.19388341 -2.18331526
C  2.36973358 -2.17418392 -1.27059063
H 0.55146987 0.21834251 4.84867236
H -0.13349757 -1.27971807  5.35435402
H  1.15138947 -1.29925805  4.02647899
H  0.47715989 -0.02914598  1.84408535
H -0.05683007  1.40418094  2.77821583
H -2.36247382  1.07773372  1.69182712
H -1.7460585  -0.61308633  1.07551821
H -2.84583474  1.61391369 -0.71996645
H -2.07568421  0.11905096 -1.20007623
H -1.81500942  2.58315701 -2.42532296
H -0.30905589  2.57022483 -1.54089925
H  0.71876018 -0.06146282 -4.01436379
H  1.39471149  1.22500729 -2.7784794 
H  0.78512089 -0.0434389  -0.95638461
H -0.19740399 -1.34944465 -1.98716506
H  1.68588643 -3.03599824 -1.09228698
H  3.4038553  -2.60673732 -1.64288615
H  2.56920192 -1.74171664 -0.27231227
