30

C 0.61413499 0.54205233 3.96599141
O -0.43451999  0.52474839  3.07597558
C -0.52151674 -0.57406177  2.21338601
C -1.56710883 -0.25372946  1.18713203
O -1.13479323  0.74093457  0.26342371
C -2.00384303  1.1099104  -0.77566061
C -1.21138343  2.0655213  -1.67525254
O -0.29177674  1.48108399 -2.58354017
C  0.90590424  0.90723948 -2.03380258
C  0.79530047 -0.65219909 -2.07173662
O  2.11624427 -1.05095059 -1.63167357
C  2.30552034 -2.46844074 -1.65608227
H 1.5731292  0.46626358 3.63864637
H 0.57363732 1.45598147 4.51399697
H  0.55802136 -0.26395065  4.63245147
H -0.97330895 -1.46300197  2.81239638
H  0.31680988 -0.84645851  1.76048594
H -2.45980257  0.04395001  1.71612712
H -1.74844609 -1.14400273  0.66034507
H -2.75429816  1.64188451 -0.46191926
H -2.4137026   0.22000945 -1.24500217
H -1.94073743  2.4915105  -2.43856571
H -0.7776258   2.78627118 -1.19147905
H  1.77270591  1.27776433 -2.63192138
H  1.16402992  1.14075955 -1.02329178
H -0.0211541  -0.96340104 -1.37113798
H  0.47140629 -0.98527483 -3.05550056
H  2.14271439 -2.89634372 -2.59454129
H  3.33240535 -2.66432192 -1.34175179
H  1.71268305 -2.90015686 -0.75477491
