30

C -1.13333118 -1.26971547  4.82089185
O -0.81532844 -0.28082653  3.85711341
C -1.38394788 -0.48937986  2.54524067
C -0.97458299  0.7183201   1.71060541
O -1.53237287  0.51589439  0.43900692
C -1.1565916   1.45292001 -0.55231259
C -1.70036314  0.98264372 -1.89970442
O -0.97761149 -0.05840608 -2.50501619
C  0.3266055   0.20554718 -2.99357266
C  1.47383944 -0.47859441 -2.15363246
O  2.627721   -0.10390342 -2.86096749
C  3.84636725 -0.57530583 -2.28187389
H -0.81008449 -2.31164475  4.42337961
H -0.54842043 -1.11836618  5.73383449
H -2.19917552 -1.36802658  5.08874969
H -2.43994412 -0.65063909  2.68368928
H -0.96357759 -1.46076015  2.01941102
H 0.13347687 0.61317338 1.77983603
H -1.2387519   1.62052616  2.2193236 
H -0.05879557  1.69641716 -0.6475962 
H -1.73910802  2.47195464 -0.46649295
H -2.70176977  0.63734406 -1.80761214
H -1.77032307  2.02430636 -2.48051056
H  0.50645843 -0.10841456 -4.05962415
H  0.46294306  1.25588317 -2.98815204
H  1.35148148 -0.00506406 -1.12404166
H  1.39278524 -1.58327    -2.16107491
H  3.75263087 -1.6975022  -2.23846819
H  4.72014881 -0.33233596 -2.84116542
H  4.00668561 -0.19111424 -1.21126774
