30

C -2.01136169  0.41930645  5.53972001
O -1.06904354  0.07483093  4.52043792
C -1.12162799  0.9519743   3.3484971 
C -0.24991207  0.23774929  2.26711268
O -0.2125852   1.08101514  1.16350375
C 0.50527924 0.48359773 0.0626052 
C  0.42712783  1.53899169 -1.01469704
O -0.32914031  1.13175901 -2.1504406 
C  0.2803062   0.60504139 -3.24717282
C  0.53069088 -0.92551354 -3.07255639
O  1.08644898 -1.36799707 -4.30564255
C  1.57420856 -2.68980235 -4.28451321
H -3.08532097  0.62780202  5.23347277
H -2.04955349 -0.45816701  6.29113211
H -1.66841318  1.36813151  6.05838042
H -0.70672452  1.86357089  3.63504355
H -2.19363902  1.06806157  2.8720622 
H -0.75735003 -0.71779993  2.07820956
H 0.66141342 0.14731327 2.63337611
H  0.05061667 -0.45159976 -0.33592738
H 1.50751021 0.3850128  0.51019647
H -0.16989974  2.41204249 -0.78191472
H  1.32612541  1.87082278 -1.45536977
H -0.4937632   0.63957901 -4.13298086
H  1.27133093  1.03911864 -3.66710103
H  1.30153656 -0.94716855 -2.18578957
H -0.19769056 -1.64756878 -2.73002996
H  0.64157428 -3.33209637 -3.97450597
H  1.93881173 -2.85465266 -5.26791679
H  2.26110051 -2.9088281  -3.41858354
