30

C  0.50821464 -0.76535152  4.18249329
O -0.48839156 -0.64720473  3.13181009
C -0.06114966  0.24607479  2.06570775
C -1.45110839  0.41820739  1.24939432
O -1.02459458  1.16352878  0.08515113
C -1.95366783  1.23862745 -0.93075722
C -1.39989647  1.89034905 -2.21022232
O -0.59634807  1.05773723 -3.00690147
C  0.69758849  0.80523493 -2.40741234
C  0.75063663 -0.61396391 -1.98728437
O  2.01682814 -0.9105723  -1.4730951 
C  2.20567827 -2.23712585 -0.91286715
H  1.11862751 -1.5875958   3.98590069
H 1.17585133 0.14283354 4.21836108
H  0.07928438 -0.75653278  5.12167788
H  0.75087031 -0.18039357  1.37572304
H 0.33988605 1.06326883 2.48261607
H -2.06420106  1.13698502  1.74589736
H -1.82969542 -0.59587572  1.19810867
H -2.7962223   1.76583806 -0.6602403 
H -2.28937766  0.21773818 -1.24697907
H -2.35438065  2.21776541 -2.81216531
H -0.89756341  2.76463242 -1.91299224
H  1.46800961  1.02317099 -3.16911963
H  0.77477531  1.37238662 -1.49752922
H -0.06208679 -0.90217353 -1.29422163
H  0.56306528 -1.23918339 -2.90630986
H  2.01959055 -3.02457995 -1.48459962
H  3.38449966 -2.29158136 -0.72634565
H  1.65035713 -2.33836145  0.07280667
