30

C 0.48388376 0.44268926 4.1887372 
O -0.55215036  0.46467356  3.27503802
C -0.37934673 -0.44432822  2.17895547
C -1.52389476 -0.15664911  1.19173111
O -0.98027342  0.71658763  0.22513199
C -1.90257789  1.03043694 -0.82242115
C -1.24174139  2.06699281 -1.76085099
O -0.33102666  1.46729762 -2.64165449
C  0.87759088  0.87483552 -2.1226763 
C  0.75271735 -0.61707004 -2.04183385
O  2.04632446 -1.15023446 -1.75933923
C  2.20564785 -2.49970605 -1.62678238
H 1.40226352 0.7453014  3.72713949
H 0.22129067 1.25055433 4.96252799
H  0.54740934 -0.49621913  4.60431429
H -0.37404132 -1.48955182  2.49564852
H  0.56530478 -0.263729    1.63306045
H -2.38025669  0.21679205  1.64850024
H -1.8714957  -1.15521428  0.69317874
H -2.78323949  1.44725183 -0.55936445
H -2.15423371  0.17487742 -1.4051139 
H -2.05562373  2.5822615  -2.36454248
H -0.79094752  2.76741172 -1.03987373
H  1.65615802  1.20821059 -2.78985532
H  1.12483297  1.39776007 -1.07491247
H  0.10798248 -0.96742552 -1.28513036
H  0.44007843 -1.03355597 -3.00796849
H  1.82827235 -3.09813986 -2.58061465
H  3.23768444 -2.75502287 -1.52435654
H  1.6407488  -2.90162852 -0.73540112
