30

C  0.455228   -0.71960636  4.24467171
O -0.64212895 -0.46535634  3.31383247
C -0.1509307   0.21529047  2.10965258
C -1.36677913  0.48792396  1.26757453
O -0.90586448  1.05274293  0.00391527
C -2.01217901  1.1667455  -0.83712452
C -1.38868733  1.91568732 -2.13695146
O -0.56253601  1.04680369 -2.94468869
C  0.66764221  0.78336984 -2.42987318
C  0.71605525 -0.669321   -2.04558118
O  2.05012344 -0.91557739 -1.5974854 
C  2.35417227 -2.252528   -1.1271586 
H  0.93796137 -1.62546627  3.8092206 
H 0.89777985 0.25723896 4.44752176
H -0.029174   -0.92490673  5.09798113
H  0.63262592 -0.49024533  1.58836145
H 0.31085897 1.06949573 2.25689962
H -1.96864184  1.2451728   1.83787517
H -1.89954011 -0.51867995  1.02153468
H -2.82605716  1.80299161 -0.42199742
H -2.49374067  0.27448412 -1.06892788
H -2.18723894  2.21877494 -2.78270947
H -0.78711521  2.70213428 -1.84388482
H  1.46758369  1.01237185 -3.10449833
H  0.86361607  1.4543057  -1.57175175
H  0.0992592  -0.83387339 -1.24859831
H  0.49996522 -1.27262179 -2.93400092
H  2.45046784 -2.9915343  -2.00295134
H  3.2793033  -2.21199793 -0.55661806
H  1.45131173 -2.49848671 -0.42096638
