30

C  1.10558633 -0.93087288  3.06334173
O -0.01933876 -0.67056155  2.28221773
C -0.41262538  0.66976582  2.22573192
C -1.59791582  0.78252708  1.28661124
O -1.11442535  1.25096605  0.04598388
C -1.91617956  1.30529858 -1.07073795
C -1.24798051  1.84637195 -2.26523607
O -0.39525553  0.90908358 -2.92739666
C  0.78778791  0.52456134 -2.28587895
C  0.56779593 -0.78931759 -1.4889918 
O  1.87199986 -1.22378686 -1.16140635
C  1.97089488 -2.39994826 -0.36728204
H  0.81330262 -0.64217811  4.04817383
H  1.15562098 -2.0299574   3.06681776
H  2.00664692 -0.36386426  2.66706953
H 0.35305392 1.3952318  1.80537592
H -0.69433161  1.0327566   3.18169477
H -2.29128768  1.43938827  1.70052159
H -2.05745503 -0.20327483  1.13680521
H -2.79121214  1.87593887 -0.8802372 
H -2.16092668  0.25900619 -1.34212941
H -1.9431737   2.219671   -3.00116601
H -0.61906791  2.72511458 -2.04416583
H  1.54320539  0.23109439 -3.01546542
H  1.07990391  1.2571655  -1.51428706
H -0.04408005 -0.64693603 -0.64609475
H  0.07302231 -1.60291712 -2.1170499 
H  1.48417523 -3.2701469  -1.0128149 
H  3.05491366 -2.76480701 -0.22610261
H  1.43245973 -2.21539864  0.62492038
