30

C 0.50125726 0.41252982 4.21587323
O -0.56402046  0.40471898  3.3052221 
C -0.38588655 -0.43329704  2.16365551
C -1.51914681 -0.10325469  1.19738366
O -1.01748868  0.71716825  0.21520461
C -1.93469501  1.08932942 -0.80773341
C -1.18007576  2.02309267 -1.78255666
O -0.38466729  1.38270974 -2.64002748
C  0.88960806  0.9096893  -2.22153167
C  0.85008919 -0.64821046 -2.06343694
O  2.09275446 -1.0872854  -1.75915364
C  2.13086304 -2.44124464 -1.60059231
H 1.38948043 0.67653478 3.6863158 
H 0.29296311 1.06730456 4.9747751 
H  0.65362587 -0.53082102  4.72243213
H -0.41963133 -1.49764832  2.6288063 
H  0.58684999 -0.23524508  1.68641597
H -2.35022047  0.30350602  1.7069059 
H -1.95907836 -0.97066167  0.77341012
H -2.86675896  1.58610058 -0.37127207
H -2.26802234  0.17066072 -1.3373236 
H -1.98889549  2.47165721 -2.40966913
H -0.68649671  2.85056304 -1.12664919
H  1.72616042  1.07839029 -2.85800873
H  1.13812455  1.35049589 -1.21970254
H  0.16301304 -0.82437699 -1.24960087
H  0.45501788 -1.02243647 -2.97685612
H  1.86024582 -3.12213138 -2.41995928
H  3.21482459 -2.8013921  -1.35282823
H  1.49987593 -2.77106471 -0.72272392
