30

C -0.72707644  0.24168517  5.54725092
O -1.25299385 -0.03016231  4.25658861
C -0.66883572  0.72965981  3.18583774
C -1.24261591  0.19136641  1.89712756
O -0.74307621  0.990914    0.84697198
C -1.21350684  0.59744652 -0.46399996
C -0.54645694  1.57802382 -1.40422756
O -0.64314144  1.12073282 -2.7475217 
C  0.53637129  0.59121013 -3.38043336
C  0.88166513 -0.81527302 -2.85369375
O  1.98261565 -1.23798857 -3.63239524
C  2.48655636 -2.51449688 -3.27126726
H -0.90489773  1.30279236  5.78594353
H -1.13510515 -0.37844072  6.22603837
H 0.34937472 0.09763061 5.49115758
H 0.35816676 0.67864911 3.15887342
H -0.91076005  1.82284409  3.28411666
H -2.29168227  0.23216914  1.92902151
H -0.98356582 -0.87217331  1.70766773
H -2.27572377  0.71222406 -0.41508844
H -0.86608418 -0.42625564 -0.84762478
H -1.11970709  2.57280715 -1.39837081
H  0.49006659  1.73536535 -1.13140024
H  0.4630061   0.56980855 -4.50832402
H  1.35156914  1.3935509  -3.14044792
H  1.10456162 -0.98055309 -1.87126311
H -0.01556289 -1.52016328 -3.0066642 
H  1.7440487  -3.31195157 -3.59175425
H  3.31376622 -2.6527797  -3.89333931
H  2.70965363 -2.56628551 -2.24522257
