30

C -0.32100336 -1.37310783  4.39407898
O -0.53873257 -0.24464604  3.49255617
C -1.03177766 -0.49605514  2.19275538
C -0.99144273  0.84137747  1.46753858
O -1.39487096  0.5528512   0.13475969
C -1.19219143  1.65707806 -0.77456464
C -1.81103224  1.18968605 -2.10333508
O -1.10760522  0.13752689 -2.72699461
C  0.28710552  0.29519466 -2.91948788
C  1.04058986 -0.59900973 -1.95134652
O  2.3590018  -0.21207225 -2.12955459
C  3.3519723  -0.89927126 -1.24646274
H  0.44750965 -1.95595135  3.93942719
H -0.07802845 -0.95853451  5.33496106
H -1.31864259 -1.87818143  4.52101005
H -2.05597257 -0.91073974  2.12784486
H -0.47758832 -1.27201873  1.67718372
H -0.04147465  1.27373939  1.40619207
H -1.65093168  1.57135881  2.01832911
H -0.14327523  1.9327053  -0.8318741 
H -1.73439038  2.5057742  -0.48297096
H -2.86571223  0.85022287 -1.96379576
H -1.9057454   1.97985249 -2.80113992
H  0.41502911 -0.13542985 -3.96893995
H  0.54868482  1.35308858 -2.95385469
H  0.64241837 -0.51469666 -0.81884579
H  0.97321621 -1.7214333  -2.13282865
H  3.46655023 -1.99006181 -1.51501545
H  4.28028264 -0.33429013 -1.31819219
H  3.03044779 -0.77486624 -0.14952236
