30

C  0.47818422 -0.55509045  4.21479094
O -0.50255082 -0.48594257  3.23051679
C -0.05010756  0.26610828  2.07680902
C -1.35688291  0.50769048  1.28080623
O -0.98393252  1.17334786  0.09034016
C -1.9081615   1.19615018 -0.94214356
C -1.31520633  1.97105769 -2.15585182
O -0.57681861  1.05542865 -2.97587254
C  0.67181509  0.67007909 -2.44833563
C  0.66802131 -0.79504869 -1.95983691
O  1.97003002 -1.09423211 -1.59853631
C  2.20570859 -2.3712573  -1.0737898 
H 0.73638492 0.42772865 4.69161263
H -0.08945595 -1.14771806  5.06401462
H  1.26631075 -1.20675738  3.80602519
H  0.57746494 -0.38305723  1.50120202
H 0.41689048 1.2803491  2.4147015 
H -2.03124671  1.05805214  1.82234789
H -1.79921669 -0.50730096  1.14487737
H -2.86578231  1.79587837 -0.66432189
H -2.39293886  0.26686871 -1.31397511
H -2.20717001  2.31338226 -2.7292226 
H -0.7039334   2.82584289 -1.8195385 
H  1.45624311  0.76405799 -3.26260957
H  1.01513522  1.30166031 -1.64333024
H -0.00290187 -0.82793012 -1.07204823
H  0.2095362  -1.39688127 -2.80682209
H  1.95185944 -3.09245957 -1.77012165
H  3.30825596 -2.47032047 -0.80454649
H  1.71530306 -2.53863684 -0.18123657
