30

C -0.8204739   0.34938576  5.56860688
O -1.2444155  -0.02792352  4.33153225
C -0.66331872  0.72974121  3.24018553
C -1.31695686  0.26099382  1.94179801
O -0.74140498  0.96806146  0.88474303
C -1.17568128  0.54242671 -0.37062765
C -0.51540755  1.53141202 -1.37232747
O -0.64065112  1.02219921 -2.72573996
C  0.60277448  0.64815302 -3.33514342
C  0.98952535 -0.80001975 -2.88309181
O  1.99053311 -1.23073718 -3.78502275
C  2.4292053  -2.55143228 -3.50193883
H -1.02558355  1.40200427  5.87106884
H -1.45178518 -0.25524672  6.31141403
H 0.27667524 0.24142419 5.88166116
H 0.51375748 0.70006449 3.2885104 
H -0.88268051  1.80101041  3.287161  
H -2.38164832  0.33735737  1.99727298
H -1.06944    -0.87076654  1.74749353
H -2.2609112   0.66565878 -0.55243637
H -0.83872366 -0.46011212 -0.68681769
H -1.07653662  2.48556012 -1.27577696
H  0.47006587  1.65108931 -0.99930223
H  0.31887671  0.67574627 -4.46784125
H  1.34331191  1.3275389  -3.1894918 
H  1.36124701 -0.77040036 -1.8501212 
H  0.09937037 -1.38280239 -2.95402467
H  1.51918922 -3.19276288 -3.51111187
H  3.24354273 -2.85699622 -4.19529297
H  2.904918   -2.59177292 -2.4211737 
