30

C -0.61791055  0.20178249  5.4790635 
O -1.16339056 -0.11863867  4.19726383
C -0.6553758   0.7450625   3.09535174
C -1.25597417  0.24939318  1.89125659
O -0.82481932  0.98722094  0.79175775
C -1.2830873   0.67104422 -0.52307193
C -0.5723493   1.5934284  -1.51096938
O -0.70406356  1.08564957 -2.76189473
C  0.55113733  0.58240097 -3.33480983
C  0.91179922 -0.76631297 -2.72996532
O  2.05025244 -1.2014469  -3.49933808
C  2.40317576 -2.54947139 -3.19178985
H -1.04731224  1.20902688  5.79925773
H -1.03460688 -0.61846751  6.20910872
H 0.43904599 0.06346227 5.5477513 
H 0.41121223 0.57737961 3.13851538
H -1.00021272  1.72027745  3.2904675 
H -2.36143369  0.33341151  2.03022504
H -0.98907542 -0.79742233  1.64922031
H -2.29004292  0.81815031 -0.59278659
H -1.08546245 -0.25678938 -0.96416653
H -1.09932458  2.58861465 -1.48504262
H  0.540818    1.56510618 -1.32844041
H  0.6348117   0.61909278 -4.41015275
H  1.35912278  1.40414515 -3.04743586
H  1.13455771 -0.78341832 -1.73310525
H  0.004358   -1.39075744 -3.07724872
H  1.54479337 -3.22995482 -3.6558941 
H  3.34218065 -2.68462792 -3.71266132
H  2.63333482 -2.77024528 -2.07507843
