30

C  0.56929954 -0.71574773  4.07270692
O -0.46018356 -0.37884087  3.25613298
C -0.10136745  0.3613841   2.08475834
C -1.37175079  0.48620729  1.21600204
O -0.95057022  1.19602892  0.0520024 
C -1.99210874  1.26179152 -1.00534063
C -1.39727595  1.86463133 -2.18717117
O -0.56045318  1.06038053 -2.93680348
C  0.70540166  0.70072557 -2.3903249 
C  0.68612518 -0.74843345 -1.94819642
O  1.99404631 -1.04235274 -1.44920979
C  2.07578933 -2.35888943 -0.90321827
H 1.04972634 0.23340402 4.36451193
H  0.1881954  -1.21939     4.97341742
H  1.33788479 -1.33660446  3.56607427
H  0.73090463 -0.13821404  1.52935182
H 0.26538268 1.42094986 2.24109228
H -2.16314592  0.97203753  1.79728028
H -1.73977955 -0.55912063  0.8560695 
H -2.86146078  1.73909689 -0.58724742
H -2.20859938  0.23902314 -1.21948033
H -2.0729422   2.19109634 -2.88002935
H -0.83342416  2.66152812 -1.88791155
H  1.43400832  0.7104267  -3.1712718 
H  0.9775165   1.33496961 -1.55214757
H -0.21952156 -0.96668218 -1.24816174
H  0.46527887 -1.47802647 -2.7973077 
H  1.85667737 -3.1338396  -1.74720642
H  3.11337537 -2.45864108 -0.59850782
H  1.44920882 -2.48671973  0.0347634 
