52

O -0.6789632  -0.36600477  2.90063497
S  0.36824094 -0.34232509  1.82312143
O  0.48053464 -1.55180451  0.89661489
N 0.21223327 0.95091297 0.73524366
S 0.42366521 2.46173322 1.21321   
O  0.41514219  3.26223428 -0.08552734
O 1.39056222 2.66392533 2.29721506
C -1.45815767  2.94523896  1.86682349
F -2.05514096  3.72978183  0.9471569 
F -2.21280661  1.85643834  1.93402502
F -1.43176264  3.65005923  2.98526227
C  1.99310495 -0.55362575  2.86471492
F  2.22708621 -1.87112306  3.10431875
F 1.85237368 0.07463929 4.02069822
F  3.06025202 -0.10343026  2.23327022
C -2.26763725 -3.50604011  2.71626792
O -3.43701326 -3.26459253  1.91689544
C -3.10703636 -3.05369998  0.54460611
C -2.67216313 -1.53581886  0.32848221
O -3.47881308 -1.01801452 -0.73522599
C -2.83055996 -0.40977162 -1.80820429
C -2.08440202  0.92815586 -1.57471977
O -1.36973422  1.19960725 -2.75772948
C -0.00981563  1.37451355 -2.69146653
C  0.64333017  0.16642794 -2.21810036
O  2.00770884  0.14202415 -2.43893683
C  2.75063495 -0.51429856 -1.43213921
C  4.20274912  0.01906178 -1.40032313
O  4.4898431   1.28768089 -0.90570371
C  3.57103474  2.30638324 -1.41761781
H -1.92659571 -4.54335582  2.39886842
H -2.31300312 -3.49438042  3.79570638
H -1.40162035 -2.83276258  2.42895147
H -2.35489407 -3.81750229  0.22334207
H -4.02212106 -3.29544002 -0.07834763
H -3.00095143 -0.9903298   1.24433134
H -1.62206091 -1.42070775  0.05564717
H -2.07961431 -1.12036628 -2.24664205
H -3.59588775 -0.15370034 -2.61293089
H -1.47108604  0.93512056 -0.65831817
H -2.79665122  1.69243458 -1.3172575 
H  0.19373958  2.25356852 -2.00905564
H  0.45440149  1.61308857 -3.67164602
H  0.23757969 -0.27629241 -1.2917356 
H -0.02774547 -0.72575132 -2.2463543 
H  2.28542817 -0.28988317 -0.38577779
H  2.82248838 -1.62827808 -1.47045086
H  4.47642649  0.04220412 -2.4843151 
H  5.0596164  -0.55378568 -0.95407128
H  2.64194068  2.209482   -0.85210126
H  4.08012403  3.31480603 -1.21205466
H  3.36599627  2.15356309 -2.51865508
