37

C -2.84129 -3.30911  6.11375
O -2.76355 -1.91985  5.81583
C -2.74045 -1.46172  4.48147
C -1.42765 -1.77324  3.68428
O -1.1971   -0.673094  2.84161 
C  0.0758554 -0.623518   2.278    
C 0.103913 0.201704 0.95193 
O  0.844453  -0.433853  -0.0877022
C  0.201542 -0.58585  -1.35427 
C  0.0432596  0.702629  -2.18191  
O -0.00912893  0.333084   -3.53089   
C  0.489581  1.29033  -4.38229 
C  2.06292  1.43669 -4.37616
O  2.34286  2.55584 -5.21364
C  3.57778  3.17153 -4.97061
H -1.92336 -3.59827  6.68181
H -2.91264 -3.88912  5.21984
H -3.69261 -3.50589  6.7463 
H -2.94588 -0.39167  4.61818
H -3.54927 -1.92004  3.90917
H -0.743465 -1.7828    4.50488 
H -1.40767 -2.74557  3.24256
H  0.776946 -0.424426  3.12501 
H  0.374741 -1.60244   1.87057 
H -0.952752  0.323166  0.555355
H 0.583945 1.15066  1.11482 
H -0.756744 -1.03703  -1.18725 
H  0.937814 -1.30054  -1.94887 
H  0.868826  1.42485  -2.01092 
H -0.82194  1.37404 -1.9706 
H -2.44017e-03  2.29544e+00 -4.14496e+00
H  0.169287  0.967938 -5.43395 
H  2.5205    0.568843 -4.82777 
H  2.44865  1.5908  -3.3658 
H  3.60111  4.19435 -5.40961
H  3.90197  3.35946 -3.89686
H  4.33439  2.55479 -5.43196
