37

C -2.59448   5.89659  -0.994814
O -3.24601     5.16273     0.00704271
C -2.80998e+00  3.82749e+00 -2.46789e-03
C -3.08132  3.23052  1.42068
O -2.16837  2.31911  1.92041
C -2.20171  1.00146  1.44104
C -1.15529   0.812639  0.305944
O -0.835574 -0.514744  0.243663
C  0.302082 -1.07316  -0.4031  
C  0.130432 -2.6097   -0.405966
O  1.2607  -3.15831 -1.03889
C  2.14333  -4.05387  -0.502483
C  3.37809 -3.78313 -1.31906
O  4.43133  -4.54499  -0.754053
C  5.10345  -3.79267   0.288377
H -1.68721   6.40551  -0.726137
H -3.29013  6.66574 -1.25894
H -2.43162  5.26851 -1.89825
H -1.77606   3.76223  -0.217069
H -3.33463   3.37274  -0.847002
H -2.8845   4.0807   2.04646
H -4.13379  2.96535  1.56555
H -2.00602   0.310534  2.2707  
H -3.18796   0.698808  1.07007 
H -1.61911   1.27774  -0.515289
H -0.27648   1.40228   0.557158
H  1.29114   -0.940773  -0.0191217
H  0.415835 -0.624676 -1.37568 
H -0.746117 -2.79352  -0.912795
H -0.0646578 -3.05067    0.578398 
H  1.82911  -5.14224  -0.732129
H  2.31522  -4.02294   0.570413
H  3.56549 -2.66258 -1.23729
H  3.19947 -3.92649 -2.42417
H  4.55244 -3.62146  1.26409
H  6.00199  -4.33743   0.550808
H  5.45523  -2.83062  -0.168905
