37

C -3.3287  -3.30534 -4.18789
O -2.24461 -3.53309 -3.29237
C -1.58867 -2.2132  -3.04853
C -0.562351 -2.44822  -1.82705 
O  0.207634 -1.30034  -1.4691  
C  0.870354 -1.57374  -0.137538
C  1.95691   -0.494886   0.0550698
O  2.58182 -0.76236  1.32721
C 3.25448  0.436781 1.89822 
C 2.37685 1.39535 2.72582
O 1.49299 2.18448 1.92935
C 0.173664 2.09395  2.37671 
C -0.780527  2.5807    1.26681 
O -2.13348  2.63169  1.72219
C -2.94277   3.07057   0.648858
H -3.72628 -4.29925 -4.503  
H -2.91155 -2.74637 -5.1171 
H -4.1235  -2.67375 -3.70012
H -2.31861 -1.43271 -2.7972 
H -1.01916 -1.91245 -3.94626
H -1.12943 -2.78345 -1.02275
H  0.1479  -3.29997 -2.21754
H  0.0985031 -1.61678    0.786078 
H  1.45848 -2.49268 -0.29218
H  2.68244  -0.649659 -0.769091
H 1.5326    0.544864  0.0826793
H 3.67941 1.04741 1.02849
H 4.07286   0.0695575 2.53151  
H 2.99306 2.06036 3.34543
H 1.81647  0.824774 3.46955 
H -0.0307512  2.63096    3.23892  
H -0.093631  1.0297    2.53964 
H -0.732492  1.95807   0.40029 
H -0.413093  3.59857   0.916883
H -3.96475   2.92713   0.978503
H -2.67114   4.08359   0.330841
H -2.82988  2.34411 -0.1629 
