37

C -7.29176 -0.68134 -1.02611
O -6.20077   0.158918 -0.739459
C -5.02731  -0.50277  -0.291923
C -3.88264   0.522616 -0.37052 
O -2.79381   -0.0444858  0.443135 
C -1.66174   0.755629  0.696015
C -0.970153   0.0873039  1.87523  
O 0.1261   0.868283 2.14878 
C 1.43412  0.433592 1.87364 
C 1.66936   0.0744024 0.388343 
O  2.7026   -0.958842  0.324103
C  3.99746  -0.363915  0.170184
C  4.47204  -0.692067 -1.29555 
O  5.77769  -0.176716 -1.31697 
C  6.48554  -0.475154 -2.47798 
H -8.20275  -0.351    -0.542436
H -7.11072  -1.64421  -0.779501
H -7.4528   -0.643017 -2.06268 
H -4.69465  -1.41066  -0.761566
H -5.07545  -0.755195  0.77954 
H -3.54478   0.521682 -1.45387 
H -4.09834    1.58246   -0.0566323
H -1.14074   0.907718 -0.2484  
H -1.88554  1.81146  1.0237 
H -1.77993  -0.131679  2.56681 
H -0.580622 -0.992803  1.73094 
H  1.68352  -0.509281  2.45842 
H 2.10792 1.1632  2.36257
H  1.95605    1.01095   -0.0863526
H  0.846036 -0.222501 -0.277247
H  4.67231  -0.8571    0.896957
H 4.01292  0.664736 0.286237
H  4.00289  -0.269014 -2.21145 
H  4.49242 -1.76856 -1.43428
H  7.53364  -0.340453 -2.25859 
H  6.43812 -1.47309 -2.81938
H  6.19126   0.253357 -3.19522 
