37

C  4.25762  0.25988 -1.10256
O  2.84243  0.37798 -1.20189
C  2.36932    0.0687436 -2.50254  
C  2.09253 -1.38893 -2.79339
O  0.922622 -1.6762   -2.03834 
C  1.03132 -2.95567 -1.44601
C -0.196874 -3.1612   -0.614816
O -0.356428 -2.13686   0.374324
C -1.70335  -2.2488    0.960819
C -2.08871 -1.08968  1.78599
O -2.34398   0.105701  1.06381 
C -2.80266  1.31706  1.65322
C -1.73614  2.41155  1.48259
O -2.04075  3.59091  2.23381
C -1.51273  4.87252  1.81895
H  4.53732   0.192885 -0.101368
H  4.74466  1.13317 -1.57501
H  4.5482  -0.70655 -1.5203 
H  2.95629   0.651794 -3.25731 
H  1.39293   0.582331 -2.52592 
H  1.90625 -1.39364 -3.85073
H  3.02513 -1.91289 -2.53397
H  1.15511 -3.80611 -2.05555
H  1.89091  -2.93311  -0.757021
H -1.03135 -3.10261 -1.35173
H -0.316325 -4.14063  -0.139743
H -1.77251 -3.19007  1.55624
H -2.47009  -2.38396   0.153421
H -1.31018  -0.886093  2.5795  
H -3.00713 -1.3666   2.32019
H -2.96722  1.15659  2.73497
H -3.72136  1.59407  1.14342
H -1.60832   2.81558   0.378245
H -0.732987  2.02695   1.75439 
H -2.08013  5.71645  2.28347
H -0.426612  4.94067   2.03092 
H -1.56959   5.0538    0.745616
