37

C -2.26132 -3.64375  4.13409
O -2.49042 -3.04663  2.87027
C -1.69588 -3.45327  1.76039
C -0.316053 -2.79986   1.76162 
O  0.378836 -2.92227   0.541923
C  1.51792  -2.16089   0.522046
C  1.47145  -0.671954  0.192329
O 1.08187  0.109746 1.28559 
C 0.0141868 0.984545  1.15259  
C 0.420299 2.36691  0.546755
O -0.237575  2.45674  -0.691156
C  0.544298  2.80374  -1.78008 
C -4.64282e-04  2.21223e+00 -3.04528e+00
O  0.711238  2.91262  -4.0935  
C -0.15386  3.71631 -4.92918
H -3.08082 -4.3171   4.44005
H -2.22234 -2.84382  4.81393
H -1.31506 -4.25306  4.20957
H -2.25345 -3.2038   0.78749
H -1.60712 -4.54437  1.74749
H -0.540538 -1.76562   2.02052 
H  0.354081 -3.33299   2.47798 
H  1.95241 -2.25145  1.55424
H  2.13985  -2.59042  -0.237724
H  2.47796  -0.401522 -0.184676
H  0.843264 -0.423721 -0.715364
H -0.383488  1.03317   2.14004 
H -0.765965  0.706949  0.413705
H 1.48763  2.60271  0.459427
H 0.0835752 3.12808   1.25523  
H  1.66237  2.56544 -1.72855
H  0.326684  3.92934  -1.85689 
H -1.02345  2.47912 -3.15354
H  0.174283  1.17388  -3.15233 
H -0.56642  3.19342 -5.80918
H -0.955905  4.18017  -4.3906  
H  0.486306  4.49872  -5.37305 
