37

C -3.01992 -4.88386  1.1445 
O -2.71847  -5.33136  -0.122928
C -3.25067 -4.46617 -1.12788
C -2.06352 -3.55095 -1.73451
O -1.98935  -2.45538  -0.881416
C -0.858961 -1.64559  -0.889702
C  0.0611938 -1.83472    0.283264 
O  0.0316165 -0.903214   1.34743  
C 0.979524 0.153217 1.26594 
C 0.2931  1.52179 1.02088
O 1.43513  2.36105  0.752044
C  1.32448    3.50722   -0.0592159
C 2.55774  4.40061  0.275013
O  2.51443   5.48222  -0.631849
C  3.47572   6.42806  -0.468584
H -4.11937 -5.03958  1.35188
H -2.84804 -3.81851  1.26396
H -2.42552 -5.44563  1.85355
H -3.94859  -3.82972  -0.667628
H -3.672   -5.00868 -1.98473
H -1.15417 -4.15589 -1.66157
H -2.28293 -3.32704 -2.81592
H -0.258947 -1.69985  -1.8669  
H -1.18528  -0.596421 -1.04242 
H -0.255301 -2.82826   0.666454
H  1.05841  -1.99529  -0.099698
H 1.62222  0.106199 0.349505
H 1.74487  0.208445 2.03933 
H -0.439996  1.92938   1.87679 
H -0.386603  1.49472   0.094393
H  0.319457   3.99555   -0.0210112
H  1.39431  3.16102 -1.12429
H 3.44927 3.84838 0.13909
H 2.55815 4.75902 1.2963 
H 3.56913  6.96358  0.463367
H  4.46072   5.97291  -0.726882
H  3.28071  7.24937 -1.18226
