37

C -3.84412 -5.92086  1.75279
O -3.52303 -4.58449  1.52492
C -3.15096  -4.15377   0.263365
C -2.44778  -2.79497   0.491575
O -1.07831  -3.05083   0.553647
C -0.351194 -1.91933   0.970116
C  1.04431  -1.80347   0.230976
O  1.71319  -0.684757  0.588491
C  1.78243   0.293131 -0.394383
C 1.16587  1.58889  0.118448
O  1.71604   2.57693  -0.668035
C  1.86791    3.87277   -0.0800138
C  2.36165  4.83595 -1.08392
O  1.41421  5.70563 -1.61365
C  0.451919  5.03825  -2.44786 
H -3.01695 -6.55494  2.12155
H -4.25247 -6.47936  0.84847
H -4.62736 -6.04031  2.58207
H -4.05605 -3.97101 -0.43899
H -2.43279  -4.83171  -0.293646
H -2.70492  -2.22848  -0.421443
H -2.9305  -2.28688  1.36198
H -0.871257 -0.930544  0.936243
H -0.20953 -2.08588  2.02563
H  1.69945 -2.68404  0.38434
H  0.823893 -2.00178  -0.824654
H  1.22741   0.141106 -1.34338 
H  2.89118   0.289726 -0.639899
H 1.28864 1.66355 1.2197 
H 0.0370745 1.5779    0.124687 
H 2.43921  3.80644  0.772224
H 0.848399 4.22992  0.197613
H  2.79292  4.26753 -1.93362
H  3.13764   5.53947  -0.669619
H -0.345311  5.78395  -2.57577 
H  0.851485  4.73777  -3.37674 
H -0.113632  4.2244   -1.94606 
