37

C  3.20833   0.475764 -6.91065 
O  2.44223  1.04265 -5.89972
C  2.81923   0.546108 -4.63276 
C  1.84929  1.14426 -3.61968
O  2.11135   0.602517 -2.35506 
C  1.15799  1.02917 -1.39196
C  1.813     0.481046 -0.111293
O 1.04245  0.817653 1.05234 
C  0.183898 -0.259801  1.31472 
C -0.376572  -0.0750349  2.65772  
O -1.53324  -0.852964  2.70172 
C -2.19518 -1.08748  3.99162
C -3.49419 -1.80167  3.64816
O -4.26643 -1.71417  4.8313 
C -5.68206 -1.53771  4.61933
H  4.37908  0.51839 -6.69821
H  3.20526  1.1402  -7.81643
H  2.87321  -0.536079 -7.15454 
H  3.93654   0.836038 -4.4921  
H  2.72167  -0.527574 -4.54261 
H  1.92399  2.27948 -3.64563
H  0.831839  0.88359  -3.97187 
H  1.13584  2.0971  -1.35298
H  0.213662  0.651679 -1.59751 
H  1.86343  -0.630456 -0.315007
H 2.80902   0.941109  0.0808459
H  0.683097 -1.21723   1.27417 
H -0.706093 -0.321459  0.589715
H -0.557037  0.955475  2.83195 
H  0.27388  -0.423226  3.41641 
H -2.47713 -0.10355  4.44431
H -1.57565 -1.72993  4.66395
H -3.3964  -2.86483  3.41396
H -4.02746 -1.33208  2.8033 
H -5.97927 -1.01784  3.74999
H -6.14617 -2.57498  4.51184
H -6.01981 -1.05537  5.57497
