37

C  2.69823  5.60816 -2.00017
O  2.64642   5.51024  -0.598082
C  2.15064   4.24714  -0.105015
C  0.64674   3.93627  -0.298288
O 0.35046  2.69174  0.325887
C -0.992822  2.42657   0.599292
C -1.05841  1.03848  1.19423
O -1.18493    -0.00752599  0.215478  
C -0.0997839 -0.409496  -0.579057 
C -0.492783 -1.77488  -1.17036 
O -0.469787  -2.61685   -0.0392098
C -0.920742 -3.93871  -0.37563 
C -0.909649 -4.88545   0.821382
O -1.66065  -5.98729   0.402767
C -1.82665 -7.02991  1.3445 
H  3.17855  6.6187  -2.25269
H  1.64288  5.68246 -2.4275 
H  3.20829  4.81085 -2.56313
H 2.40511  4.41641  0.955865
H  2.6524    3.34063  -0.609485
H -0.0729852  4.69054    0.231349 
H  0.437528  4.00516  -1.35477 
H -1.32769  3.24655  1.39611
H -1.64789   2.49323  -0.290668
H -0.24099   0.798791  1.93055 
H -1.9968   1.03684  1.801  
H  0.72438  -0.648658  0.151107
H  0.226893  0.391106 -1.32318 
H  0.338376 -2.04419  -1.8507  
H -1.43011 -1.72286 -1.71558
H -0.296681 -4.41823  -1.18466 
H -1.96655 -3.97632 -0.70464
H -1.34086 -4.46744  1.75   
H  0.128188 -5.17427   1.09347 
H -0.943077 -7.66806   1.38842 
H -2.11493 -6.6278   2.40861
H -2.71567  -7.58485   0.916567
