37

C -3.30735 -1.79242  2.69234
O -2.35754 -2.6363   1.96567
C -1.55092 -1.91005  1.06217
C -0.34529  -2.77593   0.653997
O  0.633182 -2.17322  -0.223254
C  2.08408   -2.35529    0.0480197
C  2.95204  -1.38361  -0.658596
O  2.64894  -0.10276  -0.088771
C  3.18572   1.13092  -0.708863
C  2.21183   2.2118   -0.373456
O  0.987917  1.8066   -0.985959
C -0.199843  2.37343  -0.393371
C -1.37468  1.80466 -1.22028
O -2.559     2.35268  -0.645906
C -3.61597  2.12746 -1.4963 
H -4.02797 -1.28464  1.90886
H -2.86453 -1.00387  3.22231
H -3.83617 -2.425    3.50105
H -1.20214  -0.918398  1.43203 
H -2.22035  -1.69358   0.118253
H  0.103305 -3.05789   1.67109 
H -0.735774 -3.71122   0.20897 
H  2.35983 -2.17459  1.13644
H  2.38591   -3.39096    0.0138028
H  4.01961  -1.76774  -0.634095
H  2.83806 -1.33891 -1.7199 
H  3.11944  1.07977 -1.77488
H  4.21696   1.26468  -0.345466
H  2.49418  3.13433 -1.02791
H 2.16235  2.52371  0.718379
H -0.279836  3.43313  -0.543697
H -0.364543  2.19525   0.667766
H -1.23667   0.724884 -0.939701
H -1.25359  2.0533  -2.34827
H -3.49863  2.77789 -2.38751
H -3.75665  1.02482 -1.66499
H -4.43539  2.66756 -1.02472
