37

C  6.8406  -2.10496 -1.70506
O  6.14967 -1.47891 -2.76816
C  5.40791  -0.265292 -2.48152 
C  3.95338  -0.551106 -2.01047 
O  3.02176   0.570952 -1.91781 
C  1.676     0.198676 -1.92834 
C  1.17282  -0.462912 -0.638518
O -0.197054 -0.469352 -0.584312
C -0.898964 -0.904573  0.625668
C -2.07015   0.117471  0.861695
O -3.08769  -0.157391  1.79934 
C -4.14736   0.782079  1.6799  
C -5.22999   0.564165  2.73027 
O -6.33632  1.43423  2.47317
C -7.28689  1.48807  3.47042
H  6.18649 -2.49218 -0.9378 
H  7.44413 -1.36083 -1.16481
H  7.29539 -2.98754 -2.08879
H  5.3806    0.350075 -3.38474 
H  5.88995   0.384587 -1.65502 
H  3.64027 -1.26133 -2.73752
H  3.99581 -1.11637 -1.0364 
H  1.18502  1.18602 -1.91521
H  1.3824  -0.4347  -2.74408
H  1.63406  -1.47253  -0.646261
H 1.67823  0.107939 0.169179
H -0.367976 -1.00105   1.55363 
H -1.26579  -1.93889   0.372084
H -2.4619    0.237833 -0.147994
H -1.55556  1.1432   1.00357
H -4.7065    0.604476  0.727742
H -3.86008  1.86108  1.65121
H -4.79123   0.616626  3.75655 
H -5.61594  -0.453212  2.58552 
H -7.17691  2.40908  4.06888
H -8.27545  1.61399  2.9695 
H -7.3572    0.543092  4.07442 
