37

C -2.31996  -6.69754   0.884639
O -3.31588 -5.62892  1.01602
C -2.9816   -4.27795   0.638805
C -1.85456 -3.6575   1.46928
O -2.15003 -2.30856  1.5632 
C -1.50707  -1.4856    0.676429
C -0.683145 -0.40728   1.47715 
O -0.503724  0.624743  0.564671
C 0.330879 1.69228  0.955012
C -0.161509  2.91224   0.1382  
O  0.889954  3.79287  -0.337036
C  1.49243  3.31717 -1.52173
C  2.90133  3.92258 -1.52903
O  3.5402   3.82552 -2.80278
C  4.94045  3.53786 -2.89019
H -1.24955  -6.45577   0.909749
H -2.69408   -7.27459    0.0231551
H -2.28635 -7.22772  1.86916
H -3.89207  -3.75806   0.857648
H -2.79506  -4.21717  -0.427489
H -1.8297  -4.24235  2.40377
H -0.833416 -3.93494   1.03326 
H -0.777552  -2.01039    0.0187487
H -2.2493   -1.07218  -0.101952
H -1.32395  -0.145559  2.32707 
H  0.330385 -0.769921  1.8838  
H 1.30674  1.58401  0.498188
H 0.446748 1.85521  1.95614 
H -0.755066  3.54989   0.745624
H -0.786502  2.48855  -0.677722
H  0.994763  3.62253  -2.3804  
H  1.65383  2.17805 -1.6084 
H  3.52077   3.31818  -0.844807
H  3.00175  4.94015 -1.1803 
H  5.40855  4.07825 -2.09307
H  5.13656  2.43359 -2.87985
H  5.20739  3.92891 -3.85905
