37

C -4.85253  3.44011  2.54378
O -5.61048  2.84739  1.53476
C -4.76196   1.99876   0.787458
C -4.23489   0.759305  1.64045 
O -2.82232   0.760772  1.57785 
C -2.29099  -0.114824  0.598509
C -0.831288   -0.00605872  0.619493  
O -0.338912 -0.175438 -0.679646
C  0.999545 -0.446794 -0.693492
C  1.41635  -0.687046 -2.13065 
O  2.38181 -1.66869 -2.33459
C  3.65817 -1.27871 -2.12834
C  4.43031 -2.37479 -1.27321
O  5.42734  -1.65961  -0.521269
C  6.14792  -2.56564   0.387584
H -5.21395  3.1071   3.53024
H -4.90296  4.53791  2.46457
H -3.8458   3.20531  2.49791
H -3.91666   2.54878   0.439056
H -5.29239   1.65452  -0.045708
H -4.59219  0.88882  2.69172
H -4.71413 -0.17334  1.22602
H -2.61467 -1.14297  0.75571
H -2.55243   0.235567 -0.438836
H -0.597332  1.01003   0.916851
H -0.365621 -0.638058  1.36531 
H  1.40911 -1.34591 -0.10158
H  1.52366   0.311295 -0.160076
H  1.74906   0.266164 -2.60095 
H  0.537568 -0.992914 -2.67932 
H  3.69479  -0.334254 -1.53047 
H  4.26751 -1.17226 -3.0232 
H  4.88713 -3.0792  -1.95425
H  3.75458 -2.81983 -0.56563
H  6.98963  -2.09422   0.799994
H  5.49894 -2.90164  1.20813
H  6.35338  -3.43595  -0.176956
