37

C -3.43667  -6.30009   0.993503
O -3.95805  -5.03329   0.767676
C -3.09762 -4.00122  1.02526
C -1.93136   -3.63055    0.0253349
O -0.979531 -2.96352   0.824786
C -0.129271  -2.20485    0.0514445
C  0.92539 -1.41956  1.03986
O  1.51121  -0.346444  0.322473
C 0.770722 0.773481 0.226652
C  1.52698   1.83483  -0.605672
O  0.594818  2.45464  -1.53434 
C  0.367518  3.83541  -1.24016 
C  1.51002  4.82868 -1.49045
O  1.91444   5.40354  -0.233661
C  3.23531   5.71811  -0.136592
H -4.20965  -7.04646   0.824546
H -3.07472 -6.48612  1.99301
H -2.58962  -6.57357   0.364192
H -2.60649 -4.33243  1.93916
H -3.64379 -3.1038   1.28467
H -1.49512  -4.56689  -0.356255
H -2.40379 -2.95881 -0.79899
H  0.462585 -2.82974  -0.661622
H -0.766491 -1.60594  -0.600612
H  0.431833 -0.956361  1.92641 
H  1.7304  -2.15063  1.34296
H 0.584971 1.16261  1.22937 
H -0.224042  0.674565 -0.242919
H  2.33654   1.19712  -0.956313
H  2.13849   2.61889  -0.120494
H  0.127849  3.88046  -0.165408
H -0.488775  4.19425  -1.78066 
H  1.20964  5.64477 -2.19714
H  2.3788   4.29725 -1.84531
H  3.91684   4.98963  -0.673574
H  3.39275   6.77552  -0.359799
H 3.40792  5.70765  0.938847
