37

C -3.77427  5.27138  1.94046
O -3.32872  3.97296  1.59455
C -2.48739  3.34195  2.5491 
C -1.97525  2.00836  1.98705
O -1.05938  1.53862  2.87847
C -0.0236616  0.758827   2.35946  
C -0.498118 -0.633204  1.94478 
O  0.584181 -1.47103   1.73903 
C  0.313666 -2.41863   0.729042
C  1.54976  -2.40468  -0.130638
O  1.33868 -3.18047 -1.30531
C  2.27035 -2.83624 -2.33096
C  1.56538 -2.0961  -3.46097
O  2.47531 -1.65259 -4.34723
C  2.01727 -1.60088 -5.71395
H -3.55099  5.9954   1.18863
H -3.39505  5.55955  2.89821
H -4.81482  5.27521  1.92469
H -3.11304  3.125    3.48256
H -1.55992  3.97931  2.72266
H -2.87304  1.45435  1.84139
H -1.59963   2.20749   0.955488
H 0.468539 1.18988  1.41032 
H 0.816078 0.653519 3.05799 
H -1.18332  -0.885625  2.73821 
H -1.13468  -0.587392  1.00147 
H -0.587126 -2.111     0.124687
H  0.0777619 -3.378      1.15451  
H  2.49023  -2.70935   0.434125
H  1.61673  -1.32642  -0.348672
H  2.68029 -3.71727 -2.71133
H  3.06296 -2.1769  -1.9671 
H  1.09014 -1.25289 -3.03595
H  0.741948 -2.67157  -3.9298  
H  1.41148  -0.697533 -5.85206 
H  3.02479 -1.50192 -6.26093
H  1.56386 -2.49423 -6.10503
