37

C  5.14011   3.42072  -0.807823
O  4.11088   2.81581  -0.115802
C  2.82928   3.1158   -0.655331
C 1.76325  2.77613  0.281062
O 1.34832  1.3119   0.228493
C 1.13614  0.631556 1.45519 
C  0.921588 -0.848554  0.980732
O  0.400521 -1.57054   2.06307 
C -0.0838584 -2.84093    1.66863  
C -1.60938 -2.77123  1.43118
O -1.71595  -2.15052   0.203221
C -2.98786   -1.66749   -0.0400965
C -3.14674 -1.35713 -1.5217 
O -4.47243 -1.11656 -1.87188
C -4.74371 -1.17971 -3.2694 
H  4.91806  3.3293  -1.88067
H  6.05952   2.87258  -0.687033
H  5.27825   4.49109  -0.724595
H  2.59332  2.59345 -1.60055
H  2.82433   4.15256  -0.892466
H 1.94117 3.20129 1.3013 
H  0.806101   3.25503   -0.0172744
H 2.08466  0.688969 2.11683 
H 0.301364 1.06473  1.9517  
H  0.18329  -0.762971  0.198825
H  1.86848  -1.38754   0.666682
H  0.15339 -3.36691  2.6358 
H  0.575846 -3.35848   0.904397
H -2.15096 -2.18482  2.19321
H -2.02831 -3.75964  1.2525 
H -3.1419   -0.736929  0.553492
H -3.77264  -2.47038   0.272864
H -2.7493  -2.26989 -2.02796
H -2.51319  -0.501551 -1.85245 
H -5.81795 -1.17257 -3.35784
H -4.37425  -0.339796 -3.77489 
H -4.31636 -2.10028 -3.7553 
