37

C -2.38139 -1.83528  6.32704
O -0.9724  -1.82905  6.34605
C -0.353006 -0.901358  5.57304 
C -0.996758 -0.774277  4.09266 
O -0.121697  -0.0594885  3.34217  
C -0.245472 -0.200435  1.95159 
C -0.760237  1.04602   1.27198 
O -1.13391    0.830255  -0.0239237
C -0.157769  1.04783  -1.02623 
C -0.902206  0.957607 -2.40332 
O -0.169872  0.183914 -3.26424 
C  0.486431  0.752203 -4.31638 
C  1.56605  -0.247609 -4.88898 
O  1.95358   0.376947 -6.08501 
C  3.00221 -0.27242 -6.72881
H -2.69657 -2.52072  5.58112
H -2.85983  -0.828529  6.18092 
H -2.69613 -2.33283  7.23701
H  0.690455 -1.20506   5.43344 
H -0.458709  0.132561  5.94186 
H -1.33592 -1.80811  3.78595
H -1.96901  -0.317238  4.24101 
H  0.736813 -0.520528  1.51375 
H -0.975194 -0.981968  1.66828 
H -1.68251  1.37987  1.90759
H -0.0153505  1.81987    1.37716  
H  0.627324  0.313597 -1.15417 
H  0.392082  1.99306  -0.837789
H -1.20016  1.98129 -2.6703 
H -1.83074   0.474531 -2.33761 
H  0.997827  1.65028  -4.00061 
H -0.104677  1.0414   -5.13809 
H  1.13058 -1.28523 -5.08772
H  2.35417  -0.551305 -4.13625 
H  2.63263 -1.26789 -6.86127
H  3.10298   0.183579 -7.65377 
H  4.0288   -0.267355 -6.13885 
