37

C -1.02159  7.39452 -3.15229
O -0.0503756  6.38589   -2.84628  
C -0.497778  5.225    -2.20267 
C  0.605686  4.19424  -2.08653 
O  0.0182736  3.13363   -1.29008  
C  0.929323  2.02904  -1.16067 
C  0.0499895  1.00982   -0.546786 
O  0.755677 -0.216096 -0.303065
C -0.235119 -1.25038  -0.015585
C  0.411978 -2.36246   0.837279
O -0.610397 -3.29053   1.24445 
C  0.170345 -4.28886   1.90853 
C -0.751719 -5.42113   2.36608 
O -0.00930347 -6.36934     3.14706   
C -0.686803 -7.44451   3.76275 
H -1.71026  7.11504 -3.99688
H -0.391794  8.16048  -3.60089 
H -1.46352  7.73612 -2.16912
H -1.41721  4.73943 -2.67202
H -0.844224  5.4938   -1.18026 
H  1.05576  3.90136 -3.09672
H  1.44501  4.68003 -1.43026
H  1.27896  1.67765 -2.14373
H  1.85565   2.34488  -0.607393
H -0.388041  1.38687   0.324739
H -0.842307  0.692035 -1.18644 
H -0.654303 -1.6015   -0.982386
H -1.16037  -0.806566  0.387659
H  0.718841 -1.87305   1.85653 
H  1.21231 -2.83515  0.27462
H  0.730284 -3.91478   2.76441 
H  0.889914 -4.75284   1.15883 
H -1.23607 -5.97579  1.44565
H -1.5789  -5.03864  2.99469
H -1.32414 -7.06662  4.60566
H -1.43942 -7.95609  3.13466
H  0.0353299 -8.16933    4.16802  
