37

C  5.08459  -4.19247  -0.348123
O  4.32401  -5.26969  -0.902234
C  3.18597 -4.93459 -1.7048 
C  2.00738  -4.50799  -0.922108
O  1.80139 -3.08259 -1.16136
C  0.609558 -2.56933  -0.529071
C  0.646242 -1.06234  -0.595443
O -0.515443  -0.433685  -0.0284787
C -0.654156  0.924438 -0.3809  
C -2.05521   1.27018   0.133178
O -2.05966   2.70836   0.183085
C -3.02017  3.12243  1.13743
C -2.91996   4.6155    0.948988
O -3.86933  5.25297  1.8501 
C -3.75492  6.65287  1.89671
H  5.45332 -3.55917 -1.1571 
H  5.94385   -4.66595    0.0602407
H  4.67579  -3.43191   0.392233
H  2.96569 -5.89722 -2.13638
H  3.3958  -4.1197  -2.43691
H  1.04865 -4.97179 -1.09067
H  2.08711  -4.64612   0.242099
H -0.252374 -2.97468  -1.03481 
H  0.633213 -2.8057    0.511182
H  1.53833   -0.590377  -0.0437361
H  0.816306 -0.84213  -1.72091 
H -0.580431  1.1878   -1.45058 
H 0.103904 1.52517  0.128066
H -2.1014    0.729595  1.10051 
H -2.95975   0.96979  -0.389142
H -2.75345  2.75036  2.15394
H -4.08415   2.83645   0.804276
H -3.1542     4.89136   -0.0581773
H -1.94816  5.03536  1.17941
H -2.8183   6.94251  2.38016
H -3.8956   7.21968  1.01245
H -4.47747  7.00361  2.66229
