37

C -6.15726   -1.17403    0.0892887
O -5.68712  -0.236557 -0.763   
C -4.32026   0.131269 -0.800474
C -3.87643    1.32013    0.0709952
O -2.55062   1.42724  -0.256508
C -1.59196   1.54912   0.757824
C -0.803098  0.225219  0.982654
O 0.0584451 0.564248  2.05515  
C 1.26268   0.0365854 2.13184  
C 2.21715  0.789969 1.14343 
O  3.34368e+00 -2.31288e-03  8.42329e-01
C  3.34686  -0.524453 -0.483043
C  4.49022  -1.49996  -0.647527
O  4.32327 -2.11236 -1.86886
C  4.85109 -1.36062 -2.93864
H -6.56638  -0.915071  1.02275 
H -5.36518  -1.8475    0.466142
H -6.97654  -1.80458  -0.396508
H -4.0252    0.365206 -1.82377 
H -3.67247  -0.678751 -0.580921
H -4.5405     2.19131   -0.0475949
H -3.98407  1.0275   1.0858 
H -0.8086    2.27421   0.558827
H -2.04916  1.86566  1.73775
H -1.46053  -0.560226  1.33959 
H -0.319632 -0.100971  0.029559
H  1.4392  -1.09359  1.95614
H 1.45691  0.117594 3.25076 
H 2.41377 1.75283 1.67219
H 1.63375  1.07181  0.265599
H  3.38645   0.269851 -1.21946 
H  2.44419  -1.11219  -0.697084
H  4.52201   -2.16354    0.0972292
H  5.45816  -0.952801 -0.598059
H  4.14914  -0.712798 -3.37891 
H  5.8891  -1.01676 -2.72174
H  5.00462 -2.13725 -3.71776
