37

C  0.358977 -5.31881   1.76568 
O -0.123395 -5.01478   0.430902
C -1.14253  -4.13851   0.201454
C -0.65147   -2.67518   -0.0926737
O -1.89699   -1.90918   -0.0830844
C -1.55105  -0.4939   -0.256982
C -2.70724   0.361369  0.211775
O -2.85128   1.76943  -0.221874
C -1.83534   2.5671    0.262726
C -0.939077  2.92878  -0.864468
O  0.339984  3.22851  -0.305936
C  1.29685   2.20709  -0.574931
C 2.61283   2.70978   0.0928995
O  3.72597   2.15132  -0.552818
C  3.89554    0.858049  -0.0174832
H  1.39788 -4.98215  1.73067
H  0.342318 -6.38679   1.8795  
H -0.0725022 -4.73268    2.62673  
H -1.78513 -4.16274  1.11322
H -1.70477 -4.50678 -0.72721
H -0.0586141 -2.41777    0.764255 
H -0.125267 -2.59917  -1.0442  
H -0.604761 -0.155665  0.291196
H -1.28675  -0.158485 -1.27706 
H -3.56107  -0.124656 -0.333578
H -2.82203  0.14054  1.23871
H -1.1789   2.15178  1.01841
H -2.22543   3.37618   0.886597
H -1.25815  3.80223 -1.46485
H -0.933129  1.97875  -1.51717 
H  1.41603  2.14392 -1.62462
H  0.994669  1.17769  -0.247453
H 2.50553 2.45462 1.13372
H 2.66756  3.81085  0.146882
H 4.30318  0.937361 1.02004 
H 3.02265   0.255836  0.0450128
H  4.62295   0.359826 -0.606569
