37

C -1.74026  -0.589632 -2.43403 
O -2.92312   0.107922 -2.37882 
C -3.37187   0.231202 -1.05637 
C -2.80317   1.36946  -0.210224
O -3.22348   0.952212  1.03344 
C -2.82237  1.7669   2.15454
C -1.72647  1.06174  2.98968
O -0.477391  1.24071   2.45471 
C 0.093897 0.119612 1.92448 
C 1.41152  0.468119 1.21814 
O  1.54089  -0.534345  0.238081
C  2.90519   -0.701011  -0.0800468
C  2.96203 -1.4806  -1.36753
O  4.21828 -2.09509 -1.42136
C  4.61218 -2.7193  -2.57637
H -1.28486  -0.544333 -3.39268 
H -1.92009 -1.65829 -2.28692
H -1.04663  -0.211986 -1.75307 
H -3.1163   -0.630841 -0.442184
H -4.4806    0.283122 -1.10048 
H -1.73841   1.42989  -0.370099
H -3.2167    2.40505  -0.386674
H -2.42077  2.67911  1.87711
H -3.71134  1.922    2.74419
H -1.68126  1.41303  3.98013
H -2.01101   -0.0435363  3.13498  
H -0.554204 -0.3483    1.09407 
H  0.0682267 -0.689102   2.60686  
H 2.15548  0.501493 2.05586 
H 1.39445  1.42238  0.868007
H  3.38832  -1.32963   0.659582
H  3.41685   0.252706 -0.296896
H  2.71368 -0.91559 -2.23199
H  2.18513 -2.31053 -1.36032
H  4.0291  -2.33579 -3.49328
H  5.68641 -2.54596 -2.78982
H  4.55622 -3.79569 -2.54683
