37

C -3.13281  3.76227 -6.42247
O -3.04258  3.37674 -5.08364
C -2.38828  2.11434 -4.86155
C -2.20812  1.91195 -3.33195
O -1.12737  1.00455 -3.13332
C -0.470997  1.14293  -1.8584  
C  0.606164   0.0688411 -1.64651  
O  1.43695   0.153322 -0.476573
C  0.91874 -0.874    0.44848
C  1.42838  -0.579693  1.93749 
O  1.03645 -1.64674  2.79129
C  1.3357  -1.50328  4.14733
C  0.83017 -2.69778  4.98333
O  1.84724 -3.03417  5.98137
C  1.91798 -4.42991  6.2713 
H -3.44813  4.83444 -6.3058 
H -3.74419  3.17259 -7.05853
H -2.13956  3.86261 -6.85639
H -1.41004  2.00017 -5.3608 
H -3.05462  1.34896 -5.39699
H -2.03704  2.87038 -2.84823
H -3.08171  1.53201 -2.79037
H  0.0418984  2.08371   -1.88268  
H -1.28653  1.11387 -1.10115
H  0.174098 -0.916543 -1.70268 
H  1.29165   0.128552 -2.54047 
H  1.37262 -1.8618   0.12238
H -0.196221 -0.982332  0.359686
H 1.06061  0.421496 2.29192 
H  2.5033   -0.488839  1.84619 
H  0.928608 -0.577489  4.67872 
H  2.39388 -1.42129  4.18655
H  0.607158 -3.62717   4.38176 
H -0.0995699 -2.46183    5.47736  
H  2.83331 -4.5859   6.80305
H  1.04247 -4.7467   6.87955
H  1.9134  -5.07595  5.36302
