37

C  6.87207 -3.14545 -1.65333
O  5.696   -2.59058 -2.0405 
C  5.60007 -1.28522 -1.42068
C  4.24315  -0.728037 -1.82699 
O  3.19537  -1.25929  -0.977931
C  1.8833   -0.785319 -1.34561 
C  1.2621    -0.325011  -0.0466619
O -0.131486  -0.0311087 -0.315595 
C -0.833472  0.256985  0.873315
C -2.33089   0.612361  0.488717
O -3.05353  0.69779  1.67297
C -4.4467   0.64832  1.62161
C -5.16028  2.06707  1.47093
O -6.47142  1.80565  1.83616
C -7.3791   2.79569  1.41401
H  7.71501 -2.84528 -2.3075 
H  6.75578 -4.17067 -1.71344
H  7.12245  -2.90102  -0.675051
H  6.44301  -0.548808 -1.73017 
H  5.58502  -1.36366  -0.366413
H  4.23684   0.403553 -1.83852 
H  4.08218  -0.866464 -2.8876  
H  2.04111   -0.0916639 -2.2057   
H  1.29729 -1.59768 -1.7965 
H  1.36855  -1.13138   0.684062
H 1.78486  0.591363 0.251378
H -0.539269  1.04371   1.49428 
H -0.942248 -0.640127  1.46464 
H -2.73095   -0.296532  -0.0771408
H -2.41289    1.52923   -0.0840102
H -4.68435  0.31227  2.66167
H -4.86214   -0.0171727  0.825849 
H -4.93222  2.38354  0.44195
H -4.6379   2.85153  2.10763
H -8.42418  2.55241  1.6969 
H -7.09057  3.79689  1.88585
H -7.38136   2.92328   0.283727
