37

C -7.21082   3.01289   0.942412
O -5.86667   3.02096   0.495933
C -5.08621   1.90907   0.700695
C -3.70179  2.29589  1.23121
O -3.01253  1.07273  1.32017
C -1.71143  1.14937  1.86663
C -1.0238   -0.206072  1.68624 
O  0.357837  -0.0361981  1.37819  
C  0.748167 -0.793307  0.214093
C  2.17074  -0.344233 -0.179662
O  2.74364  -1.44819  -0.932121
C  4.10648 -1.398   -1.20661
C  4.55434 -2.78725 -1.63736
O  5.87419 -2.90828 -2.14185
C  6.00843 -3.56984 -3.42595
H -7.28056  2.9671   2.04354
H -7.77791   2.10501   0.685002
H -7.66429   3.91837   0.585124
H -4.96421   1.41778  -0.237499
H -5.59301  1.11319  1.33343
H -3.3526    3.06273   0.579758
H -3.87961  2.64243  2.26645
H -1.1273   1.8956   1.40095
H -1.65372  1.34338  2.96069
H -1.25064  -0.938661  2.53291 
H -1.59793  -0.61225   0.851185
H -0.0313183 -0.608549  -0.470435 
H  0.674031 -1.8305    0.455198
H  2.71246  -0.167733  0.78049 
H  2.2793    0.571953 -0.727713
H  4.74377  -0.983017 -0.435234
H  4.41083 -0.76269 -2.06973
H  3.92748 -2.99426 -2.43862
H  4.4219   -3.51529  -0.818628
H  5.50899 -2.92062 -4.19343
H  7.09431 -3.61148 -3.70468
H  5.49691 -4.53937 -3.4772 
