37

C  1.00159 -5.72054 -6.19434
O  0.619929 -4.4372   -5.77702 
C  0.740318 -4.30739  -4.35424 
C  0.414376 -2.84388  -3.83131 
O  0.166368 -2.84509  -2.36982 
C  0.138047 -1.48071  -1.91047 
C -5.41294e-04 -1.35287e+00 -3.47706e-01
O  0.0506415  0.038467  -0.134325 
C -0.22267   0.498354  1.23708 
C -0.317782  2.02283   1.24377 
O -0.782783  2.33587   2.55024 
C -0.723241  3.63371   3.13616 
C -0.871389  3.5235    4.65628 
O -0.689908  4.8426    5.19339 
C -0.661427  4.84353   6.57187 
H  0.62804 -6.55445 -5.60907
H  2.12259 -5.78235 -6.14235
H  0.715868 -5.87625  -7.19433 
H  1.71079 -4.55023 -3.88684
H  0.0385963 -5.03052   -3.88475  
H  1.28481 -2.20918 -4.07512
H -0.414513 -2.45293  -4.39698 
H  1.10974 -1.08165 -2.20218
H -0.719712 -0.9794   -2.35591 
H -0.986555  -1.76083    0.0206979
H  0.863213 -1.81237   0.13977 
H 0.617749 0.168785 1.87091 
H -1.10446    0.0714301  1.75215  
H -1.15084   2.38007   0.558445
H 0.568596 2.59253  0.981336
H -1.41848  4.35776  2.68048
H 0.226418 4.15017  2.93849 
H -0.0612034  2.86811    4.98231  
H -1.79463  3.10051  4.8802 
H 0.340183 4.63952  6.94305 
H -0.874298  6.0117    6.77345 
H -1.42257  4.26897  7.12507
