37

C -1.92996   0.605116  5.8871  
O -0.997998 -0.427525  5.74268 
C -0.357963 -0.463459  4.50018 
C -1.23598 -1.13957  3.44911
O -0.551027 -1.16533   2.31946 
C -0.861032 -1.8545    1.16363 
C  0.445416 -2.47291   0.578503
O  0.422252 -2.26333  -0.783634
C  1.29023 -1.27847 -1.28782
C  0.942978 -1.01913  -2.75778 
O  0.721325  0.37194  -2.82708 
C -0.355108  0.714411 -3.62069 
C -0.391737  2.27638  -3.62416 
O  0.673376  2.70765  -4.46488 
C  1.10347  4.00477 -4.25349
H -2.10544  1.06501  4.96687
H -1.62028  1.41741  6.56679
H -2.72901   0.186504  6.41284 
H  0.606775 -0.982867  4.59907 
H -0.19883  0.5319   4.11059
H -1.43916 -2.21632  3.67941
H -2.24233  -0.651698  3.30591 
H -1.53626 -2.70818  1.40288
H -1.44671  -1.23677   0.441872
H  1.2564  -2.12163  1.19879
H  0.440782 -3.58713   0.765644
H  2.34872 -1.4953  -1.08622
H  1.23966  -0.432106 -0.59076 
H  0.164815 -1.66048  -2.99301 
H  1.67096 -1.27445 -3.55901
H -1.32701   0.452682 -3.3519  
H -0.203675  0.354583 -4.61507 
H -0.307319  2.67813  -2.6478  
H -1.37583  2.51144 -4.15533
H  1.71859  4.05622 -3.38093
H  1.64268  4.35532 -5.168  
H  0.246163  4.65072  -4.0054  
