37

C -7.83164   1.59888  -0.321403
O -6.74747  1.21968 -1.18573
C -5.46718   1.73003  -0.891756
C -4.46341   0.554614 -0.946395
O -3.2047    1.08511  -0.701673
C -2.16576    0.0674335 -0.574132 
C -0.922956  0.916846 -0.289818
O  0.278401  0.125156 -0.45277 
C 1.44975   0.693121  0.0499718
C  2.28789  -0.458991  0.657609
O 3.51476  0.146231 0.932369
C  4.49906  -0.706035  1.538   
C  5.13355  -1.72892   0.490124
O  6.1187  -2.48037  1.14136
C  6.46366  -3.72276   0.654267
H -8.4353    2.32113  -0.808769
H -7.4094    2.09091   0.585308
H -8.45136   0.649939 -0.158594
H -5.4808    1.98189   0.208369
H -5.21439  2.60056 -1.53286
H -4.90222  -0.217525 -0.216025
H -4.57346   0.150074 -1.89341 
H -2.35885  -0.641882  0.216775
H -1.9998   -0.460517 -1.50931 
H -0.960047  1.76105  -1.0128  
H -1.08924   1.38876   0.639091
H 1.42298  1.4644   0.880647
H  2.01809   1.2644   -0.709161
H  2.27805   -1.28959   -0.0430476
H  1.93076  -0.852558  1.5942  
H  4.04846 -1.33141  2.30575
H  5.31045  -0.179175  2.03234 
H  5.47987 -1.15644 -0.37004
H  4.31885  -2.33339   0.134681
H  7.49173 -3.88317  1.00762
H  5.76742 -4.49097  1.07695
H  6.54019  -3.6852   -0.469891
