37

C -3.97642 -4.22112 -2.17288
O -3.44374 -5.20644 -1.31431
C -2.24283  -4.80518  -0.634029
C -2.53222  -4.1553    0.718557
O -1.55025 -3.34011  1.21362
C -1.69432 -1.94122  1.29945
C -0.371022 -1.2409    1.59448 
O -0.41001   -0.0130174  0.985108 
C 0.403543 1.06868  1.45698 
C 0.896677 1.74116  0.211971
O 1.97304  2.57105  0.503909
C  2.85606   2.80686  -0.605893
C  3.47858   4.15393  -0.427286
O  2.54666  5.01293 -1.05231
C  3.00468  6.31865 -1.38594
H -4.67296 -4.64993 -2.90784
H -3.29247 -3.64004 -2.74439
H -4.55694 -3.59093 -1.48387
H -1.78372 -3.95896 -1.17811
H -1.61055 -5.73024 -0.63656
H -3.46676  -3.70097   0.574581
H -2.6882  -4.82173  1.55786
H -2.04711  -1.44223   0.329393
H -2.56922 -1.82079  2.09615
H -0.17743 -1.07175  2.71346
H  0.378212 -1.89404   1.1983  
H 1.26588  0.809308 2.02134 
H -0.194047  1.67346   2.16502 
H  0.0328861  2.13792   -0.262033 
H  1.26651   0.968377 -0.520574
H  2.29139  2.76024 -1.55781
H  3.70369   2.12237  -0.657736
H  4.47061   4.26874  -0.830672
H 3.60648  4.35439  0.643923
H  2.37581   7.05449  -0.821292
H  4.07735  6.40091 -1.22317
H  2.7125   6.61768 -2.37402
