37

C  2.18624 -7.47086 -2.20333
O  1.29417 -6.3687  -2.17581
C  1.63749 -5.56404 -1.01098
C  0.612041 -4.42566  -0.909329
O  1.00807   -3.47509    0.0605074
C -0.0433996 -2.48799    0.154445 
C  0.438883 -1.15847   0.777776
O -0.741724 -0.360721  0.997128
C -0.384928  0.977355  1.35067 
C -1.51785  1.91006  1.08565
O -0.805016  3.17184   0.945702
C -1.67967   4.2774    0.867667
C -0.77407   5.4264    0.446127
O -1.54137    6.57799    0.0940989
C -0.906414  7.69041  -0.559826
H  3.21319 -7.17231 -2.47979
H  1.83225 -8.21563 -2.99444
H  2.26445 -7.9821  -1.25247
H  2.6785  -5.17105 -1.22945
H  1.69255   -6.16935   -0.0600282
H  0.607085 -4.02618  -1.91859 
H -0.383398 -4.85404  -0.835484
H -0.357359 -2.20291  -0.850964
H -0.899532 -2.83422   0.773628
H  1.07863 -1.32426  1.64253
H  1.06854   -0.78361   -0.0212112
H 0.587469 1.32582  0.928966
H -0.110005  0.978118  2.43365 
H -2.19615  2.02275  1.93115
H -2.12846   1.65341   0.172495
H -2.17871  4.55104  1.846  
H -2.46816   4.16212   0.145765
H -0.13904   5.08081  -0.330428
H -0.156138  5.58376   1.31536 
H -0.299267  7.32434  -1.37832 
H -1.70967   8.36977  -0.904439
H -0.181635  8.11565   0.158126
