37

C -6.19134 -1.26532  3.02134
O -5.81206   -0.0888099  2.41822  
C -5.34757  -0.176164  1.09099 
C -3.98592   0.584181  0.991534
O -3.73369   0.760886 -0.36152 
C -2.40243   1.02231  -0.719541
C -1.73397  -0.379547 -0.795006
O -0.496879 -0.231397 -0.430228
C  0.624448 -0.860056 -1.10125 
C  1.7699    -0.0214799 -0.40263  
O  2.93856  -0.257919 -1.13915 
C  4.09033  -0.414734 -0.418768
C  5.23523   0.182868 -1.25607 
O  6.35648  -0.36717  -0.617104
C  7.45769   0.499695 -0.33166 
H -5.37855 -1.88973  3.3874 
H -6.76826 -1.79495  2.21184
H -6.80703 -1.09081  3.84309
H -6.08428   0.458421  0.532582
H -5.3931   -1.24067   0.668409
H -4.13012  1.44728  1.59993
H -3.23281  -0.047453  1.44385 
H -2.39018  1.5848  -1.6401 
H -1.89866    1.62215    0.0788157
H -2.30939  -1.10236  -0.226789
H -1.79258  -0.759092 -1.87885 
H  0.639733 -0.804053 -2.1843  
H  0.68169  -1.97536  -0.940966
H  1.8076   -0.402301  0.709095
H  1.55643  1.03327 -0.39194
H  4.43971  -1.47529  -0.289186
H 4.02949  0.174235 0.554044
H  5.20691  1.28316 -1.20478
H  5.1042   -0.235203 -2.26515 
H 7.55605  0.733661 0.744613
H  8.44163e+00 -7.62604e-03 -6.65398e-01
H  7.32376   1.3756   -0.871409
