37

C  0.340181 -4.13735  -4.69707 
O  0.041999 -3.74351  -3.38423 
C  0.833721 -2.57379  -3.12371 
C  0.914494 -2.44887  -1.64486 
O  1.74026 -1.37602 -1.19851
C  1.04862  -0.152243 -1.27659 
C  1.94634   0.959568 -0.538697
O  1.20005   2.19396  -0.423317
C 1.26461  3.08391  0.685932
C 0.920247 2.54638  2.03341 
O -0.487368  2.27544   1.76421 
C -0.96923  1.39617  2.78404
C -2.51863  1.23598  2.57909
O -2.83766    0.0394115  3.28359  
C -4.2252   -0.233382  2.99737 
H -0.0225257 -3.4789    -5.52068  
H -0.252978 -5.06394  -4.96356 
H  1.42644 -4.43063 -4.87845
H  0.366887 -1.69937  -3.65496 
H  1.84319 -2.75639 -3.4429 
H -0.0988745 -2.4045    -1.21986  
H  1.39659 -3.38377 -1.29731
H  0.86878   0.154416 -2.36767 
H  0.151127 -0.299619 -0.675209
H 2.12582  0.426409 0.419459
H  2.9101    1.17838  -0.980084
H 0.469708 3.89325  0.537028
H 2.17718  3.63039  0.777413
H 0.994474 3.28511  2.80215 
H 1.46338 1.62374 2.2789 
H -0.738044  1.72918   3.7817  
H -0.517208  0.40465   2.62201 
H -2.72843  1.02067  1.54284
H -3.13728  2.06559  3.01868
H -4.52076  -0.175968  1.91735 
H -4.39122 -1.24102  3.31831
H -4.84766   0.452156  3.55294 
