37

C -0.156062  7.5762   -1.58948 
O -0.477458  6.20183  -1.46055 
C -0.0249196  5.40424   -2.54099  
C -0.732253  4.04026  -2.55921 
O -0.281648  3.24004  -1.41715 
C -0.675083  1.87941  -1.53898 
C -0.0782483  1.04428   -0.394923 
O -0.168201 -0.382386 -0.891407
C  0.504741  -1.24025    0.0411306
C  0.0312602 -2.65686   -0.14355  
O  0.440928 -3.3301    1.05339 
C -0.0158752 -4.64613    1.30602  
C  0.412688 -5.06644   2.70289 
O -0.0127465 -6.39811    2.85392  
C  0.161041 -6.94188   4.11349 
H  0.898591  7.72625  -1.6588  
H -0.447149  8.10532  -0.619329
H -0.758173  8.03541  -2.35696 
H  1.05942  5.22583 -2.43683
H -0.175799  5.84711  -3.51675 
H -1.78688  4.08651 -2.67589
H -0.415975  3.50903  -3.40818 
H -1.76352  1.82964 -1.4548 
H -0.342257  1.52883  -2.54989 
H  0.945211   1.3058    -0.0225967
H -0.721638  1.16873   0.524351
H  0.31808  -0.990855  1.11966 
H  1.58783  -1.14217  -0.178565
H  0.37337 -3.12791 -1.14685
H -1.06335  -2.64868  -0.197612
H  0.466909 -5.35578   0.564137
H -1.10146 -4.78406  1.19824
H -0.092675 -4.41927   3.45747 
H  1.52342 -5.00728  2.84915
H -0.375004 -6.43744   4.93481 
H -0.345419 -7.90336   4.07472 
H  1.16124 -7.32252  4.33382
