37

C -3.86549  4.59991 -1.9042 
O -3.3744   3.31522 -1.60064
C -1.9397   3.28513 -1.4835 
C -1.48212   1.91799  -0.984419
O -0.019415  2.01332  -1.08005 
C  0.632942  0.874141 -0.512011
C  2.13076  1.16147 -0.58468
O 2.90861  0.356243 0.284038
C  3.37555  -0.954434 -0.245334
C  2.93263  -1.91454   0.825893
O  1.58714  -2.22806   0.448314
C  0.853724 -2.93878   1.43405 
C -0.583438 -3.24047   0.97738 
O -1.1933  -3.7105   2.11724
C -2.59672 -3.91395  1.99205
H -3.23003  5.41517 -1.50766
H -4.8596   4.73752 -1.58626
H -3.91084  4.63589 -3.02601
H -1.39892   3.98264  -0.832314
H -1.45535  3.46012 -2.48424
H -1.87704   1.75998   0.055529
H -1.95772  1.2404  -1.69046
H 0.413971 0.794703 0.576483
H  0.205634  -0.0608087 -0.984392 
H  2.64572  1.38153 -1.60214
H  2.15915    2.14101   -0.0194001
H  4.41584  -0.902854 -0.485808
H  2.92109 -1.27773 -1.13206
H  2.93608 -1.43515  1.84709
H  3.5625   -2.73886   0.999651
H  0.783122 -2.30431   2.35302 
H  1.38025 -3.8232   1.79638
H -0.735229 -3.91261   0.145175
H -0.991393 -2.34053   0.622325
H -2.85822 -4.56021  1.14372
H -2.97567 -4.49401  2.84663
H -3.06802 -2.90288  1.89514
