30

C -1.717217  0.577573  5.651988
O -1.184286  0.012009  4.475377
C -1.063553  0.908227  3.389054
C -0.487267  0.107926  2.224851
O -0.352438  1.007005  1.141131
C  0.151798  0.439095 -0.052511
C  0.173902  1.551437 -1.118337
O -0.45225   1.152164 -2.319714
C  0.360795  0.608193 -3.334759
C  0.719143 -0.85906  -3.067681
O  1.391485 -1.316525 -4.223784
C  1.77238  -2.674017 -4.192151
H -2.73229   0.964767  5.485525
H -1.754354 -0.218014  6.39861 
H -1.084034  1.394622  6.025631
H -0.389644  1.743293  3.637597
H -2.043802  1.323811  3.107423
H -1.16576  -0.720244  1.967665
H  0.488537 -0.316223  2.509246
H -0.486467 -0.388743 -0.398587
H 1.163805 0.034743 0.115832
H -0.383755  2.410555 -0.727287
H  1.206434  1.879089 -1.311617
H -0.2204    0.663828 -4.261702
H  1.283451  1.194887 -3.462249
H  1.367651 -0.946625 -2.180842
H -0.19883  -1.440283 -2.886225
H  0.898202 -3.332209 -4.09023 
H  2.273112 -2.885416 -5.138829
H  2.465661 -2.875865 -3.363407
