30

C  1.291722 -0.450384  2.942247
O  0.185929 -0.40307   2.069101
C -0.813315  0.53033   2.436282
C -1.804912  0.647424  1.281823
O -1.137906  1.242098  0.186366
C -1.885571  1.314056 -1.014547
C -0.971566  1.884441 -2.110826
O -0.369855  0.879838 -2.896295
C  0.860667  0.338177 -2.455824
C  0.675743 -0.769104 -1.410933
O  1.859364 -1.550132 -1.452764
C  1.865559 -2.638157 -0.558495
H  0.98903  -0.743398  3.957779
H  1.979749 -1.198573  2.544445
H 1.803616 0.520757 2.99157 
H -0.36869   1.513742  2.649802
H -1.34513   0.164032  3.33021 
H -2.663845  1.261369  1.598979
H -2.170872 -0.355224  1.010122
H -2.759265  1.972184 -0.877377
H -2.243826  0.317191 -1.312516
H -1.57788   2.487035 -2.79868 
H -0.214063  2.533212 -1.647284
H  1.333059 -0.101868 -3.341926
H  1.518544  1.12821  -2.064235
H  0.526405 -0.35225  -0.40612 
H -0.202392 -1.379367 -1.676249
H  1.055771 -3.34719  -0.783641
H  2.826863 -3.143681 -0.673219
H  1.757077 -2.301701  0.482224
