30

C -0.246887 -0.20046   5.066444
O -0.967631 -0.292996  3.857928
C -0.46016   0.498036  2.802582
C -1.376738  0.268246  1.604585
O -0.85542   1.0414    0.540332
C -1.556168  0.930244 -0.685208
C -0.813575  1.802447 -1.713758
O -0.728164  1.151365 -2.966869
C  0.505184  0.550121 -3.296852
C  0.808166 -0.680516 -2.433363
O  1.995595 -1.242594 -2.957606
C  2.457683 -2.388202 -2.277743
H -0.246138  0.828027  5.453961
H -0.745286 -0.854458  5.784484
H  0.793546 -0.530752  4.938096
H 0.569458 0.202523 2.545471
H -0.458426  1.565755  3.072909
H -2.403436  0.579335  1.852091
H -1.389424 -0.801653  1.344272
H -2.600777  1.258796 -0.56952 
H -1.569753 -0.115304 -1.029581
H -1.349738  2.747441 -1.866048
H  0.185997  2.037787 -1.322897
H  0.424301  0.238894 -4.343695
H  1.332616  1.270524 -3.206016
H  0.947776 -0.391313 -1.379758
H -0.026778 -1.397078 -2.492263
H  1.719448 -3.201572 -2.31662 
H  3.372267 -2.708979 -2.780151
H  2.682474 -2.165064 -1.225187
