30

C  0.584632 -0.68043   4.1019  
O -0.48419  -0.391658  3.228522
C -0.118448  0.298628  2.055588
C -1.384251  0.502293  1.233526
O -0.99329   1.161981  0.044458
C -1.983871  1.247016 -0.965814
C -1.352907  1.929315 -2.185637
O -0.557547  1.057322 -2.956013
C  0.70336   0.686921 -2.423145
C  0.66643  -0.757582 -1.916551
O  1.978765 -1.062102 -1.481621
C  2.125143 -2.3349   -0.895269
H 1.0744   0.239043 4.451902
H  0.162264 -1.210863  4.95742 
H  1.336262 -1.318232  3.61565 
H  0.643375 -0.247552  1.471424
H 0.373153 1.26282  2.274155
H -2.110659  1.105929  1.799369
H -1.84043  -0.474455  1.010116
H -2.840149  1.845216 -0.614624
H -2.345039  0.244647 -1.241471
H -2.153174  2.276139 -2.849735
H -0.768587  2.798148 -1.846638
H  1.442915  0.761511 -3.230929
H  1.00469   1.357044 -1.60798 
H -0.050096 -0.85546  -1.088483
H  0.352739 -1.43181  -2.729133
H  1.861963 -3.135255 -1.601416
H  3.174628 -2.437504 -0.61188 
H  1.497931e+00 -2.436172e+00  2.330000e-03
