30

C  0.583838 -0.673677  4.104482
O -0.487344 -0.385551  3.233717
C -0.120877  0.299799  2.053014
C -1.408452  0.495903  1.244134
O -1.002187  1.154168  0.047304
C -1.988033  1.23961  -0.967021
C -1.35333   1.928132 -2.181572
O -0.554002  1.060704 -2.953093
C  0.705325  0.689553 -2.417323
C  0.667711 -0.756346 -1.914788
O  1.981398 -1.065111 -1.48699 
C  2.127786 -2.340059 -0.905452
H 1.078164 0.245693 4.448379
H  0.1629   -1.198415  4.964278
H  1.331496 -1.316673  3.61889 
H  0.601416 -0.287199  1.463978
H 0.33106  1.276551 2.285744
H -2.057218  1.173544  1.81054 
H -1.780784 -0.500938  0.9824  
H -2.847916  1.834519 -0.61873 
H -2.345345  0.237419 -1.248744
H -2.151487  2.277019 -2.847154
H -0.771317  2.796134 -1.83651 
H  1.447218  0.766301 -3.222764
H  1.003931  1.357899 -1.599674
H -0.0451   -0.855307 -1.08359 
H  0.348717 -1.427303 -2.728018
H  1.859517 -3.137597 -1.612879
H  3.178361 -2.445867 -0.627323
H  1.504563 -2.442906 -0.005219
