30

C  0.434115 -0.633378  4.26547 
O -0.589101 -0.37384   3.330384
C -0.165794  0.296564  2.16087 
C -1.404385  0.481999  1.288938
O -0.974019  1.128929  0.106059
C -1.935338  1.202221 -0.933845
C -1.289099  1.926189 -2.122744
O -0.604085  1.054284 -2.993677
C  0.699202  0.646418 -2.620303
C  0.683356 -0.727049 -1.941501
O  2.037024 -1.126207 -1.82502 
C  2.237614 -2.323076 -1.109457
H 0.897265 0.297996 4.620267
H -0.029319 -1.148305  5.10913 
H  1.215609 -1.27531   3.834965
H  0.585172 -0.296787  1.61457 
H 0.274186 1.276795 2.40247 
H -2.153775  1.089076  1.819791
H -1.846956 -0.500024  1.061896
H -2.818209  1.76782  -0.595067
H -2.259125  0.195771 -1.238245
H -2.078818  2.393442 -2.723273
H -0.619064  2.711731 -1.743224
H  1.290969  0.573324 -3.541202
H  1.17105   1.384925 -1.957449
H  0.213633 -0.66637  -0.950005
H  0.112407 -1.44012  -2.557057
H  1.732561 -3.170693 -1.594171
H  3.313428 -2.508871 -1.092044
H  1.869505 -2.237454 -0.076506
