30

C  0.498444 -0.370598  4.300602
O -0.550172 -0.154353  3.382823
C -0.135452  0.043035  2.047407
C -1.391524  0.306849  1.216636
O -0.979949  1.036289  0.075137
C -1.963992  1.209912 -0.930054
C -1.320548  1.979327 -2.089925
O -0.529317  1.162285 -2.922385
C  0.732636  0.753366 -2.422107
C  0.693459 -0.719059 -2.003254
O  2.016916 -1.065477 -1.638739
C  2.162456 -2.362808 -1.10971 
H 1.182653 0.488712 4.335398
H  0.039499 -0.504752  5.281946
H  1.074482 -1.271122  4.044753
H  0.395632 -0.845229  1.666922
H 0.544871 0.90431  1.9559  
H -2.105554  0.893994  1.815334
H -1.874439 -0.638215  0.925891
H -2.816445  1.787168 -0.53707 
H -2.333063  0.235775 -1.285285
H -2.114372  2.384441 -2.728309
H -0.729958  2.81345  -1.681831
H  1.46613   0.871832 -3.230135
H  1.044091  1.372566 -1.57107 
H  0.007997 -0.859962 -1.155346
H  0.339866 -1.337757 -2.843165
H  1.851636 -3.129641 -1.83349 
H  3.220951 -2.496762 -0.877577
H  1.573074 -2.487575 -0.189281
