30

C  0.58474  -0.675417  4.107157
O -0.478778 -0.389169  3.226579
C -0.104317  0.306742  2.054846
C -1.375855  0.50041   1.233269
O -0.988399  1.162756  0.044299
C -1.980582  1.24693  -0.964569
C -1.351952  1.929985 -2.185143
O -0.557792  1.058357 -2.957216
C  0.703246  0.686694 -2.425609
C  0.665511 -0.758273 -1.920413
O  1.976878 -1.063007 -1.482782
C  2.123175 -2.338308 -0.901862
H 1.068553 0.245124 4.462698
H  0.158048 -1.208931  4.958652
H  1.342368 -1.309779  3.625673
H  0.629032 -0.270647  1.469786
H 0.33829  1.285098 2.299053
H -2.106021  1.099335  1.799011
H -1.824818 -0.4795    1.009771
H -2.836949  1.844222 -0.612023
H -2.341173  0.244259 -1.239796
H -2.153293  2.277081 -2.847795
H -0.767104  2.798671 -1.84669 
H  1.44238   0.761696 -3.233748
H  1.005512  1.35565  -1.609841
H -0.052974 -0.856973 -1.094085
H  0.353784 -1.431869 -2.734268
H  1.863437 -3.135719 -1.612592
H  3.171877 -2.440734 -0.615536
H  1.493186 -2.444685 -0.006806
