30

C 0.510683 0.481854 4.180193
O -0.552886  0.477777  3.255592
C -0.430355 -0.469896  2.21287 
C -1.537174 -0.195488  1.194651
O -1.014002  0.683946  0.215615
C -1.919353  1.078345 -0.799659
C -1.190821  2.066318 -1.718538
O -0.340557  1.432338 -2.647072
C  0.87229   0.890212 -2.151863
C  0.785249 -0.637069 -2.080719
O  2.082619 -1.097113 -1.749167
C  2.20065  -2.495852 -1.633273
H 1.46739  0.705505 3.687743
H 0.292437 1.262053 4.911894
H  0.597116 -0.484289  4.698049
H -0.529179 -1.493492  2.610871
H  0.548203 -0.381167  1.716874
H -2.399745  0.259569  1.704304
H -1.862414 -1.138457  0.725874
H -2.79912   1.572954 -0.357209
H -2.261136  0.206913 -1.379395
H -1.933814  2.612154 -2.311675
H -0.631152  2.783215 -1.099085
H  1.671261  1.164714 -2.852862
H  1.117063  1.296947 -1.162461
H  0.055824 -0.948564 -1.318963
H  0.462653 -1.035649 -3.055652
H  1.950394 -2.999512 -2.577969
H  3.240698 -2.709094 -1.378068
H  1.547186 -2.889173 -0.84088 
