30

C  1.356838 -0.200789  2.944207
O 0.440851 0.180677 1.945551
C -0.912493  0.085207  2.328295
C -1.833031  0.685068  1.238157
O -1.06946   1.143866  0.147381
C -1.810902  1.529862 -0.993484
C -0.818591  1.862908 -2.117653
O -0.543323  0.733932 -2.921942
C  0.664347  0.035308 -2.694747
C  0.667871 -0.741283 -1.372939
O  1.69684  -1.711226 -1.492964
C  1.900568 -2.481188 -0.331767
H  1.227382 -1.255037  3.229282
H  2.355646 -0.062391  2.526434
H 1.25156  0.422809 3.843664
H -1.076193  0.624895  3.276599
H -1.186434 -0.970701  2.497648
H -2.418639  1.515029  1.669739
H -2.548193 -0.085661  0.903835
H -2.427778  2.41508  -0.766795
H -2.474666  0.715319 -1.321604
H -1.272225  2.618371 -2.773151
H  0.100211  2.280073 -1.68373 
H  0.754242 -0.680744 -3.519242
H  1.525479  0.720463 -2.730586
H  0.864955 -0.077598 -0.521013
H -0.310065 -1.224433 -1.222493
H  1.00175  -3.057967 -0.069237
H  2.720314 -3.17158  -0.54226 
H  2.173147 -1.848268  0.524836
