30

C -0.901122  0.427554  5.631904
O -1.238736 -0.013928  4.335943
C -0.739949  0.790717  3.286629
C -1.217475  0.155163  1.984271
O -0.708207  0.952665  0.932137
C -1.054112  0.522451 -0.3702  
C -0.430083  1.532697 -1.339516
O -0.588358  1.094913 -2.675893
C  0.549321  0.610362 -3.353935
C  0.90291  -0.823454 -2.939935
O  1.94316  -1.236677 -3.803699
C  2.405145 -2.551809 -3.59021 
H -1.298991  1.433109  5.828283
H -1.347389 -0.278745  6.334553
H 0.188119 0.443521 5.77809 
H 0.360894 0.825528 3.302958
H -1.121858  1.821101  3.361401
H -2.317895  0.128867  1.961614
H -0.842173 -0.877613  1.91261 
H -2.146498  0.494413 -0.501515
H -0.657425 -0.486439 -0.565484
H -0.949869  2.494481 -1.24087 
H  0.628543  1.678161 -1.085163
H  0.299565  0.616406 -4.420625
H  1.418574  1.265455 -3.192619
H  1.234149 -0.854863 -1.889701
H  0.018359 -1.471274 -3.046219
H  1.602167 -3.287112 -3.740201
H  3.198088 -2.732125 -4.318515
H  2.811156 -2.673522 -2.576069
