30

C  1.359166 -0.202729  2.941236
O 0.438652 0.164423 1.941432
C -0.912401  0.0977    2.340211
C -1.83554   0.670116  1.237715
O -1.072281  1.143479  0.152967
C -1.813427  1.519528 -0.991494
C -0.820604  1.868872 -2.110443
O -0.532591  0.7486   -2.922256
C  0.675972  0.053121 -2.690001
C  0.668749 -0.73873  -1.377319
O  1.701501 -1.704546 -1.498049
C  1.893962 -2.488555 -0.344343
H  1.21733  -1.246678  3.256715
H  2.355554 -0.090795  2.509995
H 1.272325 0.446953 3.824015
H -1.060101  0.66847   3.272508
H -1.193335 -0.950619  2.541344
H -2.446786  1.485914  1.660386
H -2.527349 -0.119515  0.897827
H -2.444666  2.395069 -0.766732
H -2.46336   0.695618 -1.323865
H -1.279016  2.624531 -2.762336
H  0.093083  2.291393 -1.670865
H  0.778322 -0.652904 -3.521682
H  1.53404   0.742768 -2.708488
H  0.855541 -0.08437  -0.515984
H -0.309292 -1.2263   -1.242259
H  0.993829 -3.071075 -0.099617
H  2.718117 -3.173956 -0.553921
H  2.154617 -1.865784  0.523323
