30

C  0.503853 -0.490176  4.26078 
O -0.540907 -0.250409  3.344521
C -0.117632  0.150968  2.057319
C -1.379536  0.390225  1.231652
O -0.974276  1.077951  0.06289 
C -1.966071  1.219853 -0.939875
C -1.333308  1.955947 -2.12694 
O -0.548831  1.116    -2.942666
C  0.718186  0.722728 -2.442516
C  0.684592 -0.737157 -1.98157 
O  2.011863 -1.071775 -1.619987
C  2.164978 -2.356159 -1.062014
H 1.108499 0.413163 4.422873
H  0.038814 -0.785262  5.203319
H  1.162436 -1.298892  3.913812
H  0.507435 -0.623674  1.585424
H 0.465145 1.084316 2.108288
H -2.09052   0.995729  1.815174
H -1.860395 -0.567047  0.979434
H -2.816661  1.806971 -0.557643
H -2.335787  0.234904 -1.263034
H -2.133117  2.342126 -2.769595
H -0.739954  2.801851 -1.748106
H  1.444068  0.818935 -3.260313
H  1.03663   1.366235 -1.612346
H  0.007194 -0.854286 -1.123623
H  0.323877 -1.379829 -2.800183
H  1.84972  -3.140271 -1.765057
H  3.225769 -2.482377 -0.836106
H  1.583947 -2.460586 -0.133892
