30

C -1.354781  0.619237  5.733135
O -1.098996  0.022591  4.48135 
C -0.96906   0.931507  3.406863
C -0.704892  0.095898  2.157859
O -0.566975  1.004861  1.08235 
C -0.325697  0.41126  -0.179241
C -0.248998  1.563291 -1.190578
O -0.448605  1.120596 -2.514685
C  0.663899  0.621302 -3.228097
C  0.743866 -0.907429 -3.142648
O  1.791    -1.296428 -4.008585
C  1.994129 -2.688408 -4.108092
H -2.296894  1.185181  5.72152 
H -1.43119  -0.190371  6.461453
H -0.53987   1.295195  6.028182
H -0.131195  1.626471  3.574931
H -1.889419  1.521617  3.273498
H -1.544915 -0.594545  1.984636
H  0.212675 -0.497856  2.292284
H -1.149613 -0.264475 -0.458116
H  0.61082  -0.16815  -0.162553
H -1.064503  2.262316 -0.9713  
H  0.707632  2.096651 -1.088485
H  0.526648  0.903809 -4.278939
H  1.602817  1.065281 -2.867122
H  0.950909 -1.231675 -2.110261
H -0.215949 -1.346409 -3.457304
H  1.099167 -3.196461 -4.493759
H  2.821354 -2.839776 -4.804127
H  2.256645 -3.125081 -3.13415 
