30

C  0.526722 -0.719394  4.154658
O -0.511293 -0.400633  3.247192
C -0.127869  0.290692  2.076812
C -1.392403  0.458482  1.23819 
O -1.004788  1.126545  0.052545
C -1.995062  1.204453 -0.958803
C -1.379467  1.923272 -2.165367
O -0.565943  1.083628 -2.952368
C  0.705313  0.734954 -2.429983
C  0.703324 -0.714933 -1.937532
O  2.032428 -1.005214 -1.545762
C  2.213257 -2.280216 -0.974253
H  1.51364  -0.626804  3.686958
H  0.491431 -0.047741  5.022614
H  0.384839 -1.749508  4.4951  
H  0.619505 -0.281125  1.504732
H 0.295428 1.279286 2.313896
H -2.140557  1.044038  1.794371
H -1.820064 -0.530226  1.011434
H -2.866363  1.775246 -0.599147
H -2.330905  0.198337 -1.252264
H -2.187426  2.265336 -2.822619
H -0.813927  2.797933 -1.809891
H  1.437909  0.832301 -3.241654
H  0.997355  1.404396 -1.610774
H  0.013896 -0.832165 -1.089215
H  0.374834 -1.384616 -2.748029
H  1.939671 -3.078749 -1.678518
H  3.272024 -2.370814 -0.723126
H  1.614503 -2.396762 -0.059177
