30

C -1.902636  0.54282   5.568265
O -1.191068  0.027129  4.465578
C -1.114056  0.894501  3.352058
C -0.327209  0.153748  2.274969
O -0.236299  1.026795  1.166117
C 0.436777 0.499937 0.038102
C  0.367204  1.556122 -1.081506
O -0.42618   1.129862 -2.171364
C  0.233439  0.576379 -3.286801
C  0.678743 -0.870782 -3.041195
O  1.191805 -1.338676 -4.272538
C  1.619933 -2.682334 -4.266218
H -2.946345  0.763039  5.303326
H -1.883566 -0.223453  6.345615
H -1.434611  1.459831  5.953195
H -0.596736  1.830819  3.614588
H -2.117919  1.145159  2.974923
H -0.850144 -0.776199  2.002578
H  0.673051 -0.107329  2.65515 
H -0.039152 -0.433238 -0.299432
H 1.48537  0.273255 0.293237
H -0.098505  2.46009  -0.67142 
H  1.379644  1.818063 -1.422976
H -0.488431  0.58683  -4.110668
H  1.105179  1.183779 -3.575343
H  1.452256 -0.911678 -2.257095
H -0.181332 -1.476244 -2.714119
H  0.793103 -3.364216 -4.022922
H  1.984928 -2.904029 -5.270843
H  2.432767 -2.839982 -3.543241
