30

C  0.596556 -0.713579  4.069031
O -0.486158 -0.391865  3.227975
C -0.124221  0.332415  2.056873
C -1.388715  0.532083  1.234399
O -0.994163  1.175064  0.036993
C -1.985938  1.253154 -0.972862
C -1.355483  1.923131 -2.199722
O -0.56389   1.042281 -2.9637  
C  0.700582  0.67972  -2.434174
C  0.667741 -0.756149 -1.903268
O  1.987472 -1.059061 -1.489983
C  2.137846 -2.315976 -0.871464
H 1.094085 0.190211 4.447988
H  0.189419 -1.278403  4.909925
H  1.339733 -1.331918  3.544507
H  0.593815 -0.328133  1.542257
H 0.346427 1.293728 2.302635
H -2.110225  1.148169  1.793164
H -1.851696 -0.443916  1.023216
H -2.840507  1.85617  -0.625843
H -2.349304  0.249012 -1.238935
H -2.156276  2.266065 -2.865239
H -0.768373  2.793471 -1.869559
H  1.433778  0.740143 -3.248893
H  1.008541  1.363509 -1.632854
H -0.032081 -0.837546 -1.059325
H  0.335106 -1.442076 -2.698323
H  1.85035  -3.133691 -1.547577
H  3.193174 -2.420036 -0.611242
H  1.532414 -2.38598   0.04402 
