30

C  0.399331 -0.73708   4.266687
O -0.601176 -0.379546  3.339408
C -0.123511  0.243216  2.16457 
C -1.345153  0.549358  1.302861
O -0.861654  1.147644  0.117793
C -1.831365  1.310836 -0.897782
C -1.376428  1.885571 -2.238148
O -0.668229  0.962047 -3.033786
C  0.648825  0.634181 -2.622429
C  0.682194 -0.753828 -1.976101
O  2.047265 -1.056629 -1.753732
C  2.276578 -2.241979 -1.028011
H 0.955212 0.144667 4.615045
H -0.105452 -1.202117  5.115578
H  1.10993  -1.453872  3.831448
H  0.559785 -0.422875  1.613346
H 0.413747 1.175312 2.399547
H -2.026643  1.228443  1.838355
H -1.885449 -0.384143  1.080895
H -2.631426  1.977404 -0.524797
H -2.301938  0.332932 -1.106708
H -2.28074   2.14131  -2.799257
H -0.781562  2.799949 -2.081581
H  1.283472  0.622517 -3.517657
H  1.044207  1.380578 -1.92096 
H  0.12666  -0.751258 -1.027728
H  0.218387 -1.490893 -2.650546
H  1.870097 -3.119167 -1.551282
H  3.358381 -2.352593 -0.929459
H  1.826666 -2.189986 -0.02555 
