30

C  0.56183  -0.661912  4.136933
O -0.487691 -0.373662  3.240564
C -0.087982  0.313856  2.06467 
C -1.363089  0.503266  1.239388
O -0.975453  1.1561    0.045025
C -1.972685  1.242323 -0.958746
C -1.350812  1.92737  -2.181632
O -0.563106  1.05663  -2.961219
C  0.702507  0.684521 -2.441197
C  0.668626 -0.759135 -1.931947
O  1.988761 -1.070806 -1.526651
C  2.140778 -2.343253 -0.941125
H 1.048495 0.257092 4.492763
H  0.119588 -1.185797  4.986544
H  1.320713 -1.306101  3.670582
H  0.598895 -0.319662  1.487774
H 0.300292 1.304695 2.334193
H -2.092312  1.107637  1.80044 
H -1.813527 -0.477567  1.023232
H -2.826907  1.839339 -0.600614
H -2.335147  0.240221 -1.233671
H -2.156025  2.277295 -2.838099
H -0.762489  2.794388 -1.844899
H  1.433263  0.755902 -3.257232
H  1.014085  1.355765 -1.630753
H -0.029379 -0.852265 -1.087628
H  0.332785 -1.432169 -2.736621
H  1.856203 -3.143393 -1.639163
H  3.195889 -2.451934 -0.681932
H  1.533903 -2.438746 -0.02896 
