30

C  0.580422 -0.703767  4.130093
O -0.49543  -0.39331   3.272381
C -0.127847  0.283084  2.086653
C -1.409458  0.503417  1.303693
O -0.975747  1.198229  0.016384
C -1.973274  1.254851 -0.980842
C -1.353218  1.92314  -2.215919
O -0.563756  1.042289 -2.982318
C  0.703271  0.68291  -2.457572
C  0.672096 -0.748075 -1.913352
O  1.999341 -1.059359 -1.530558
C  2.155636 -2.316748 -0.915082
H 1.098317 0.205091 4.466812
H  0.158415 -1.218613  4.99521 
H  1.307691 -1.363068  3.635719
H  0.573754 -0.320517  1.489552
H 0.348373 1.249621 2.312934
H -2.10785   1.156323  1.834288
H -1.890294 -0.444082  1.045513
H -2.833913  1.853901 -0.640349
H -2.330035  0.247404 -1.24504 
H -2.159774  2.260643 -2.877267
H -0.766845  2.796699 -1.893169
H  1.430879  0.7338   -3.277971
H  1.017721  1.374166 -1.665226
H -0.006873 -0.817035 -1.051406
H  0.314328 -1.437434 -2.694443
H  1.847048 -3.132934 -1.583801
H  3.215972 -2.427991 -0.6792  
H  1.571061 -2.382636  0.014301
