30

C  0.585873 -0.675078  4.105703
O -0.476114 -0.390493  3.222742
C -0.100608  0.308292  2.053121
C -1.370972  0.498864  1.228367
O -0.987661  1.161925  0.044508
C -1.980872  1.247938 -0.963497
C -1.352546  1.930827 -2.184266
O -0.558953  1.058974 -2.956749
C  0.701932  0.686372 -2.425379
C  0.664071 -0.759348 -1.922426
O  1.972744 -1.061105 -1.47488 
C  2.118482 -2.337829 -0.896862
H 1.066077 0.246284 4.464009
H  0.158491 -1.211193  4.955225
H  1.346628 -1.306467  3.625241
H  0.636265 -0.265786  1.469201
H 0.338122 1.287776 2.299913
H -2.104704  1.092401  1.79607 
H -1.815786 -0.483561  1.005272
H -2.836338  1.845504 -0.609459
H -2.342432  0.245581 -1.238725
H -2.153818  2.278742 -2.846506
H -0.766798  2.798954 -1.845813
H  1.441262  0.76299  -3.233216
H  1.003935  1.35382  -1.608292
H -0.060695 -0.860809 -1.101932
H  0.36052  -1.432927 -2.739382
H  1.867807 -3.133751 -1.612498
H  3.165009 -2.437489 -0.601739
H  1.48109  -2.449406 -0.007731
