30

C  0.611036 -0.662793  4.054581
O -0.511342 -0.413128  3.232833
C -0.131856  0.290909  2.063755
C -1.396229  0.494131  1.232909
O -0.998569  1.161071  0.049814
C -1.982377  1.250215 -0.966749
C -1.342294  1.935314 -2.180229
O -0.541858  1.064787 -2.947104
C  0.713277  0.689332 -2.404242
C  0.668652 -0.757965 -1.906291
O  1.974546 -1.065845 -1.454635
C  2.113579 -2.345108 -0.880655
H 1.084236 0.275072 4.375621
H  0.25488  -1.20429   4.933592
H  1.357132 -1.275888  3.530742
H  0.603502 -0.285324  1.480917
H 0.311197 1.265934 2.318332
H -2.128827  1.092683  1.796011
H -1.847192 -0.482949  1.000878
H -2.840322  1.84833  -0.619512
H -2.342803  0.249082 -1.247781
H -2.137421  2.284402 -2.849272
H -0.759847  2.802853 -1.83473 
H  1.460855  0.767256 -3.204301
H  1.007786  1.354182 -1.582323
H -0.059569 -0.860047 -1.088963
H  0.366006 -1.427453 -2.726925
H  1.862228 -3.137585 -1.599855
H  3.15874  -2.449789 -0.582435
H  1.472863 -2.457387  0.006035
