30

C  0.149462 -0.144888  4.429682
O -0.173224 -0.780684  3.213087
C  0.13258  -0.069209  2.028624
C -1.172763  0.276588  1.304785
O -0.812005  0.991851  0.138   
C -1.858401  1.213659 -0.792761
C -1.277424  1.989733 -1.98099 
O -0.583886  1.168363 -2.891847
C  0.699033  0.70559  -2.50405 
C  0.642401 -0.772307 -2.107305
O  1.980263 -1.173424 -1.877152
C  2.1259   -2.482524 -1.376502
H -0.393536  0.802771  4.549729
H -0.146301 -0.827327  5.22932 
H 1.227663 0.05138  4.506521
H  0.752153 -0.704062  1.381504
H 0.68153  0.856802 2.245042
H -1.816685  0.886944  1.957278
H -1.712131 -0.648069  1.049594
H -2.663741  1.806102 -0.32931 
H -2.279727  0.257613 -1.138449
H -2.102707  2.43933  -2.545551
H -0.626973  2.791811 -1.600343
H  1.367023  0.813963 -3.368285
H  1.101645  1.297894 -1.672195
H  0.035663 -0.904607 -1.200152
H  0.187071 -1.360446 -2.919783
H  1.721025 -3.227701 -2.075965
H  3.195704 -2.657384 -1.245738
H  1.620399 -2.597761 -0.40677 
