30

C  0.151887 -0.620212  4.557891
O -0.757441 -0.478557  3.489326
C -0.300907  0.331352  2.425453
C -1.422695  0.37009   1.39165 
O -0.944058  1.139246  0.304404
C -1.764667  1.140381 -0.85037 
C -1.013668  1.905002 -1.957055
O -0.754742  1.082953 -3.076958
C  0.519054  0.476555 -3.142672
C  0.723344 -0.583771 -2.054029
O  1.965311 -1.200929 -2.33619 
C  2.352713 -2.190806 -1.410375
H 0.385019 0.351202 5.016001
H -0.327348 -1.261624  5.299894
H  1.089113 -1.088828  4.226083
H  0.608485 -0.090464  1.967667
H -0.074165  1.351625  2.772685
H -2.325466  0.823187  1.829007
H -1.665965 -0.654676  1.071009
H -2.74201   1.603971 -0.644145
H -1.954856  0.109422 -1.187223
H -1.61205   2.758205 -2.299038
H -0.077704  2.302484 -1.538926
H  0.578817 -0.004543 -4.124574
H  1.317519  1.231095 -3.070252
H  0.740937 -0.119091 -1.056361
H -0.097086 -1.318727 -2.084998
H  1.630046 -3.018633 -1.383366
H  3.322458 -2.571223 -1.737127
H  2.450133 -1.774686 -0.397392
