30

C  0.485083 -0.746847  4.1855  
O -0.529576 -0.508557  3.226983
C -0.149765  0.213399  2.074131
C -1.411334  0.375612  1.229853
O -1.029805  1.082815  0.065122
C -2.013215  1.162597 -0.952805
C -1.40692   1.930217 -2.133752
O -0.566091  1.133925 -2.93688 
C  0.710578  0.805137 -2.414833
C  0.743924 -0.656406 -1.959344
O  2.07874  -0.922545 -1.569898
C  2.289144 -2.204615 -1.024872
H  0.681995 -1.823456  4.255862
H  1.415789 -0.231057  3.925965
H  0.143454 -0.38655   5.162426
H  0.612556 -0.3305    1.494134
H 0.252017 1.204144 2.336819
H -2.176036  0.930059  1.7954  
H -1.815774 -0.615694  0.973937
H -2.902229  1.700338 -0.585649
H -2.319941  0.156486 -1.276576
H -2.218367  2.269801 -2.788001
H -0.866842  2.808768 -1.749433
H  1.445242  0.942255 -3.218843
H  0.979958  1.460913 -1.576984
H  0.055014 -0.8127   -1.116944
H  0.435303 -1.313375 -2.787859
H  2.037072 -2.994481 -1.746719
H  3.349123 -2.274656 -0.772304
H  1.690917 -2.355027 -0.114416
