30

C  0.517259 -0.681108  4.187423
O -0.505362 -0.410571  3.245916
C -0.117249  0.273085  2.072672
C -1.383275  0.455343  1.239193
O -0.99369   1.121932  0.053367
C -1.986668  1.209793 -0.954548
C -1.370354  1.92837  -2.160904
O -0.566181  1.085693 -2.95422 
C  0.705239  0.726957 -2.439106
C  0.696026 -0.724004 -1.949886
O  2.025815 -1.024994 -1.568689
C  2.200686 -2.301043 -0.997614
H  1.487614 -0.299592  3.851407
H  0.264913 -0.208277  5.143648
H  0.597099 -1.764302  4.335727
H  0.62058  -0.30785   1.497097
H 0.318288 1.256662 2.307249
H -2.1231    1.047327  1.799741
H -1.821984 -0.528389  1.012081
H -2.852861  1.785339 -0.590169
H -2.33032   0.206926 -1.250066
H -2.178348  2.278805 -2.813698
H -0.797011  2.797553 -1.804486
H  1.43423   0.821063 -3.254384
H  1.006151  1.392605 -1.619988
H  0.012115 -0.838057 -1.096711
H  0.356555 -1.389361 -2.759425
H  1.915058 -3.09782  -1.699081
H  3.260613 -2.400118 -0.754726
H  1.608175 -2.411968 -0.077799
