30

C  0.266185 -0.730562  4.376593
O -0.701751 -0.497861  3.377717
C -0.249849  0.270723  2.281939
C -1.433672  0.416605  1.330038
O -0.963273  1.140496  0.208777
C -1.859301  1.221017 -0.887008
C -1.128525  1.915412 -2.049468
O -0.746652  1.003189 -3.058809
C  0.563775  0.479131 -3.008127
C  0.734619 -0.569327 -1.902904
O  1.987726 -1.186571 -2.134753
C  2.34151  -2.166334 -1.185656
H 0.623105 0.211979 4.814848
H -0.215626 -1.328043  5.1528  
H  1.127995 -1.283609  3.977166
H  0.581992 -0.231467  1.761432
H 0.094711 1.264272 2.609184
H -2.25713   0.950895  1.828076
H -1.793277 -0.580258  1.031726
H -2.760812  1.788582 -0.607461
H -2.174797  0.215042 -1.203084
H -1.800315  2.645955 -2.517056
H -0.256244  2.455424 -1.654532
H  7.380930e-01 -5.100000e-04 -3.977514e+00
H  1.304438  1.282359 -2.874698
H  0.717319 -0.097204 -0.910129
H -0.083232 -1.305566 -1.95721 
H  1.621643 -2.997122 -1.179885
H  3.325303 -2.545646 -1.469021
H  2.396053 -1.741002 -0.17296 
