30

C  0.55629  -0.667741  4.138189
O -0.492634 -0.376491  3.24191 
C -0.095702  0.306174  2.070154
C -1.350116  0.511064  1.234593
O -0.970354  1.160839  0.04375 
C -1.970151  1.246125 -0.957683
C -1.350808  1.927039 -2.184068
O -0.566663  1.053129 -2.963581
C  0.701095  0.682386 -2.447653
C  0.66933  -0.759413 -1.932986
O  1.991614 -1.069922 -1.533782
C  2.145315 -2.337469 -0.938136
H 1.045761 0.250084 4.492994
H  0.11269  -1.1899    4.988061
H  1.312857 -1.314177  3.671345
H  0.636988 -0.284717  1.497455
H 0.357502 1.280268 2.312764
H -2.133512  1.058356  1.79105 
H -1.875136 -0.444777  1.051993
H -2.822343  1.84509  -0.59811 
H -2.334771  0.243695 -1.228364
H -2.157532  2.276338 -2.839004
H -0.760362  2.794139 -1.851314
H  1.428236  0.75063  -3.26716 
H  1.016403  1.356543 -1.641069
H -0.024006 -0.849271 -1.08456 
H  0.328962 -1.435252 -2.7334  
H  1.854666 -3.14321  -1.62717 
H  3.201957 -2.445777 -0.685088
H  1.544433 -2.423782 -0.021109
