30

C  0.624088 -0.658282  4.0295  
O -0.52198  -0.424743  3.233481
C -0.142363  0.284519  2.065723
C -1.404777  0.490953  1.232288
O -1.003492  1.16108   0.052151
C -1.983445  1.251778 -0.967996
C -1.33828   1.937812 -2.178258
O -0.534661  1.067827 -2.942447
C  0.717482  0.690702 -2.393838
C  0.669471 -0.757633 -1.899221
O  1.972082 -1.066366 -1.438727
C  2.107537 -2.347647 -0.868372
H 1.091083 0.286701 4.337545
H  0.298302 -1.203583  4.918188
H  1.365045 -1.261616  3.487909
H  0.593845 -0.289571  1.48228 
H 0.299557 1.258566 2.325027
H -2.138592  1.088356  1.795024
H -1.855712 -0.485136  0.996066
H -2.842428  1.849927 -0.623407
H -2.343243  0.251113 -1.251474
H -2.13054   2.287496 -2.850373
H -0.75721   2.805019 -1.829616
H  1.469343  0.770012 -3.189741
H  1.007931  1.353631 -1.568942
H -0.064647 -0.861484 -1.087407
H  0.372818 -1.42545  -2.723391
H  1.862051 -3.137619 -1.592328
H  3.15049  -2.452839 -0.562693
H  1.460258 -2.463524  0.013069
