30

C  0.887666 -0.846995  3.698994
O -0.256273 -0.549843  2.93084 
C -0.045074  0.401174  1.904891
C -1.359148  0.518873  1.135983
O -1.102084  1.361246  0.029548
C -2.055748  1.335624 -1.027615
C -1.361158  1.961304 -2.241299
O -0.521266  1.042799 -2.903075
C  0.690344  0.685071 -2.256079
C  0.620047 -0.770885 -1.783689
O  1.720059 -0.975266 -0.916018
C  1.848737 -2.293004 -0.429581
H 1.270592 0.047464 4.210303
H  0.58827  -1.586057  4.444802
H  1.689486 -1.267577  3.075395
H 0.751185 0.073068 1.219084
H 0.238264 1.378971 2.324942
H -2.146582  0.939309  1.780625
H -1.677758 -0.481391  0.804424
H -2.986365  1.800179 -0.670072
H -2.305667  0.290167 -1.277497
H -2.113416  2.268584 -2.977877
H -0.797144  2.848929 -1.918157
H  1.508536  0.797779 -2.97973 
H  0.892482  1.335748 -1.397103
H -0.32939  -0.94888  -1.257005
H  0.667363 -1.454669 -2.645564
H  2.015673 -3.006427 -1.248784
H  2.712753 -2.303693  0.237865
H  0.955627 -2.601602  0.13147 
