30

C -0.938379  0.455647  5.650739
O -1.247213 -0.005796  4.354557
C -0.756165  0.802742  3.304575
C -1.19962   0.143538  2.001933
O -0.698094  0.945322  0.949384
C -1.01591   0.49497  -0.353796
C -0.411546  1.518447 -1.321385
O -0.580375  1.091476 -2.659928
C  0.55192   0.614331 -3.35199 
C  0.904081 -0.826407 -2.961445
O  1.937416 -1.229878 -3.837973
C  2.395443 -2.550045 -3.648348
H -1.365226  1.45194   5.832965
H -1.374978 -0.256166  6.353901
H 0.148052 0.501786 5.810767
H 0.343061 0.866911 3.334757
H -1.166133  1.823224  3.365194
H -2.2986    0.087796  1.965369
H -0.796197 -0.879448  1.944333
H -2.106437  0.441173 -0.493767
H -0.591204 -0.504191 -0.537182
H -0.940067  2.473691 -1.207844
H  0.648473  1.672744 -1.078017
H  0.295926  0.636692 -4.417014
H  1.423835  1.264757 -3.186263
H  1.242056 -0.874206 -1.913949
H  0.016916 -1.470017 -3.071328
H  1.588584 -3.279705 -3.804916
H  3.183065 -2.721842 -4.384443
H  2.807326 -2.689485 -2.638869
