30

C  0.593217 -0.675782  4.10758 
O -0.473749 -0.392617  3.230165
C -0.105207  0.30664   2.058605
C -1.379821  0.495514  1.240906
O -1.000546  1.160375  0.05016 
C -1.994578  1.235974 -0.952646
C -1.339774  1.939605 -2.209968
O -0.547015  1.063455 -2.968576
C  0.70976   0.69022  -2.427203
C  0.665647 -0.754627 -1.922529
O  1.974561 -1.063124 -1.480355
C  2.115094 -2.338775 -0.898662
H 1.07408  0.24622  4.463328
H  0.170943 -1.212409  4.959325
H  1.352258 -1.306209  3.623163
H  0.629275 -0.266637  1.470868
H 0.333711 1.286597 2.303148
H -2.110823  1.090673  1.809473
H -1.825181 -0.486265  1.018451
H -2.851301  1.837386 -0.611896
H -2.347198  0.234585 -1.238043
H -2.143868  2.283494 -2.868935
H -0.759374  2.803818 -1.856836
H  1.45534   0.764196 -3.229427
H  1.005922  1.358856 -1.608966
H -0.055936 -0.851375 -1.098712
H  0.354882 -1.427005 -2.737746
H  1.855571 -3.135533 -1.610184
H  3.162478 -2.444132 -0.608629
H  1.481642 -2.44312  -0.005839
