30

C  0.619558 -0.659705  4.038143
O -0.51864  -0.420721  3.233436
C -0.138964  0.286618  2.065184
C -1.401977  0.492024  1.23255 
O -1.001812  1.160967  0.051384
C -1.983056  1.251203 -0.967563
C -1.33959   1.936966 -2.178879
O -0.537085  1.066815 -2.944036
C  0.716097  0.690234 -2.39744 
C  0.669238 -0.757739 -1.901658
O  1.973065 -1.06628  -1.444496
C  2.10974  -2.346821 -0.872787
H 1.08876  0.282912 4.350396
H  0.283543 -1.20366   4.923735
H  1.362243 -1.266399  3.502515
H  0.596933 -0.288338  1.482048
H 0.303448 1.260966 2.322832
H -2.135351  1.089917  1.795341
H -1.853    -0.484375  0.997786
H -2.841682  1.84934  -0.622059
H -2.343083  0.250398 -1.25026 
H -2.132814  2.286517 -2.84993 
H -0.758019  2.804245 -1.831254
H  1.466457  0.769034 -3.194808
H  1.007995  1.353833 -1.573588
H -0.062678 -0.860925 -1.087775
H  0.370282 -1.426106 -2.724551
H  1.861947 -3.137707 -1.594961
H  3.153525 -2.451929 -0.569932
H  1.46493  -2.461286  0.010648
