30

C  0.530633 -0.579815  4.203049
O -0.480417 -0.455394  3.22798 
C -0.093194  0.231876  2.055242
C -1.362432  0.461057  1.239287
O -0.967385  1.125649  0.054136
C -1.964659  1.239133 -0.946876
C -1.338728  1.942835 -2.15706 
O -0.558954  1.081377 -2.954529
C  0.706563  0.693183 -2.446065
C  0.666765 -0.758423 -1.96045 
O  1.987625 -1.084624 -1.569314
C  2.13466  -2.365138 -1.000173
H 0.884444 0.404817 4.539358
H  0.092381 -1.112436  5.049248
H  1.387771 -1.152065  3.820948
H  0.623112 -0.363856  1.467135
H 0.378556 1.196394 2.298974
H -2.076718  1.070561  1.814107
H -1.834268 -0.506541  1.00933 
H -2.813734  1.835999 -0.576473
H -2.33533   0.245408 -1.2406  
H -2.142147  2.311738 -2.805317
H -0.743299  2.798586 -1.804365
H  1.434199  0.77388  -3.264006
H  1.025495  1.349208 -1.62604 
H -0.026165 -0.861039 -1.113092
H  0.321434 -1.416052 -2.773816
H  1.83972  -3.154773 -1.705837
H  3.190731 -2.484251 -0.749637
H  1.533352 -2.467294 -0.085123
