30

C -0.380745 -0.359248  4.170933
O  0.638778 -0.561102  3.216521
C 0.630297 0.209743 2.032753
C -0.762999  0.498591  1.467371
O -0.540921  1.116311  0.212623
C -1.698966  1.317553 -0.580664
C -1.263806  1.984605 -1.891336
O -0.737621  1.072007 -2.826359
C  0.573619  0.584746 -2.593354
C  0.53103  -0.856804 -2.078676
O  1.875409 -1.29361  -2.012496
C  2.05774  -2.559203 -1.419918
H -1.353702 -0.727196  3.818815
H -0.090015 -0.931993  5.054872
H -0.478871  0.698779  4.452178
H  1.180353 -0.378888  1.286918
H 1.184182 1.151298 2.178028
H -1.336992  1.169074  2.126069
H -1.327002 -0.439406  1.342505
H -2.412444  1.973425 -0.056074
H -2.194603  0.35844  -0.794057
H -2.143877  2.433446 -2.366754
H -0.536922  2.778997 -1.663921
H  1.109808  0.602388 -3.550898
H  1.112403  1.218304 -1.876987
H  0.059605 -0.897406 -1.086258
H -0.055842 -1.483613 -2.768744
H  1.534584 -3.345538 -1.982503
H  3.130048 -2.764369 -1.429369
H  1.697482 -2.569332 -0.381197
