30

C  0.574929 -0.680919  4.108999
O -0.482488 -0.391508  3.227921
C -0.104837  0.303432  2.056434
C -1.374866  0.499567  1.233361
O -0.986871  1.161076  0.044224
C -1.979766  1.246653 -0.963793
C -1.351734  1.930001 -2.184518
O -0.558269  1.058554 -2.957457
C  0.703255  0.68664  -2.427158
C  0.665888 -0.758532 -1.922546
O  1.978192 -1.064345 -1.488528
C  2.125311 -2.340234 -0.909123
H 1.075155 0.275517 4.482372
H  0.149315 -1.210351  4.96266 
H  1.341051 -1.306433  3.631315
H  0.628434 -0.275373  1.472814
H 0.339432 1.280606 2.30227 
H -2.104496  1.099502  1.798823
H -1.825437 -0.479691  1.009944
H -2.835374  1.844386 -0.610173
H -2.341357  0.244419 -1.239356
H -2.153524  2.277415 -2.846463
H -0.766534  2.798499 -1.846177
H  1.441607  0.761866 -3.235992
H  1.00634   1.355336 -1.611483
H -0.050492 -0.857196 -1.094375
H  0.351574 -1.431468 -2.735953
H  1.863328 -3.136873 -1.619896
H  3.174689 -2.44346  -0.625579
H  1.497556 -2.447087 -0.012546
