30

C  0.496349 -0.441956  4.282915
O -0.547867 -0.216206  3.362512
C -0.122776  0.109224  2.054524
C -1.382512  0.357871  1.227245
O -0.974514  1.059826  0.067729
C -1.964109  1.214796 -0.935223
C -1.328044  1.964388 -2.112026
O -0.542271  1.133461 -2.935749
C  0.723477  0.733792 -2.43754 
C  0.688098 -0.730974 -1.992401
O  2.015092 -1.0713   -1.635094
C  2.166281 -2.360681 -1.088343
H 1.129067 0.449547 4.396034
H  0.030031 -0.675744  5.241875
H  1.127673 -1.286489  3.972532
H  0.472274 -0.707402  1.615803
H 0.491818 1.023412 2.058316
H -2.093082  0.958145  1.816731
H -1.865762 -0.594536  0.961771
H -2.814916  1.798137 -0.547731
H -2.334131  0.234192 -1.271044
H -2.126031  2.358771 -2.751954
H -0.734902  2.805264 -1.721854
H  1.450891  0.838111 -3.252974
H  1.040936  1.368178 -1.599997
H  0.011034 -0.856637 -1.135405
H  0.326132 -1.364189 -2.817803
H  1.848971 -3.138169 -1.797793
H  3.227014 -2.490816 -0.864394
H  1.585789 -2.472018 -0.160641
