30

C  0.590094 -0.695252  4.088035
O -0.483368 -0.390336  3.227507
C -0.11497   0.320647  2.056786
C -1.382128  0.518076  1.234047
O -0.991035  1.169698  0.040286
C -1.983403  1.250607 -0.968669
C -1.354207  1.926047 -2.193181
O -0.561508  1.049188 -2.96069 
C  0.701578  0.682788 -2.430369
C  0.666849 -0.757395 -1.911468
O  1.982689 -1.060491 -1.486219
C  2.131724 -2.327029 -0.887211
H 1.080223 0.216706 4.456847
H  0.173633 -1.246069  4.933599
H  1.340936 -1.320561  3.583809
H  0.611131 -0.302527  1.509283
H 0.343407 1.289573 2.301944
H -2.107627  1.126465  1.795939
H -1.838976 -0.459676  1.017387
H -2.838441  1.8514   -0.618901
H -2.345973  0.247171 -1.238494
H -2.155538  2.270367 -2.857315
H -0.768214  2.795944 -1.859861
H  1.437413  0.750289 -3.242165
H  1.006816  1.359742 -1.622292
H -0.042113 -0.847204 -1.075995
H  0.344609 -1.437771 -2.715527
H  1.858468 -3.134502 -1.58131 
H  3.183919 -2.429658 -0.614067
H  1.514022 -2.416237  0.018287
