30

C  1.38113  -0.172259  2.931045
O  0.399669 -0.059771  1.927177
C -0.902076  0.198797  2.404917
C -1.833342  0.588248  1.240893
O -1.085312  1.175347  0.200362
C -1.8083    1.446548 -0.985817
C -0.808838  1.901563 -2.062279
O -0.442275  0.845024 -2.925213
C  0.756339  0.147632 -2.648893
C  0.640994 -0.768007 -1.425464
O  1.718574 -1.686159 -1.515547
C  1.808939 -2.57086  -0.42295 
H  1.185062 -1.027748  3.59347 
H  2.336042 -0.322968  2.424351
H 1.435442 0.741034 3.540529
H -0.868424  1.027146  3.133821
H -1.318491 -0.683586  2.918484
H -2.604029  1.281851  1.615621
H -2.346965 -0.313763  0.864579
H -2.551942  2.239805 -0.804244
H -2.337379  0.546599 -1.33468 
H -1.287355  2.665255 -2.68912 
H  0.071512  2.345927 -1.577678
H  0.953489 -0.47089  -3.53164 
H  1.595287  0.848077 -2.517021
H  0.70628  -0.192636 -0.493305
H -0.325461 -1.296385 -1.44769 
H  0.920979 -3.216072 -0.354873
H  2.692315 -3.192705 -0.583579
H  1.918149 -2.025045  0.524765
