30

C  1.239507 -0.61473   2.87942 
O  0.066912 -0.48288   2.107338
C -0.692758  0.679371  2.381511
C -1.763165  0.8086    1.301295
O -1.140482  1.292071  0.126331
C -1.941797  1.266004 -1.041709
C -1.108378  1.834402 -2.19824 
O -0.313024  0.863951 -2.836492
C  0.877485  0.454416 -2.184669
C  0.66737  -0.83457  -1.380494
O  1.940863 -1.451568 -1.279004
C  1.936769 -2.681961 -0.594445
H  1.009593 -0.656709  3.953646
H  1.714772 -1.550374  2.579171
H 1.93305  0.217742 2.697351
H -0.053845  1.575028  2.378399
H -1.177618  0.583438  3.367255
H -2.548431  1.504854  1.638605
H -2.219543 -0.17647   1.120249
H -2.842646  1.885359 -0.899762
H -2.256852  0.23798  -1.276127
H -1.788599  2.220836 -2.966741
H -0.491899  2.663803 -1.819294
H  1.613487  0.249564 -2.97219 
H  1.266819  1.253716 -1.539271
H  0.26282  -0.623291 -0.381519
H -0.038898 -1.486774 -1.918672
H  1.306791 -3.424069 -1.106073
H  2.967835 -3.041496 -0.572629
H  1.573873 -2.566241  0.436782
