30

C  1.358321 -0.274165  2.91192 
O  0.288378 -0.283182  1.9947  
C -0.878171  0.374291  2.444379
C -1.82917   0.581639  1.26393 
O -1.118809  1.199877  0.211745
C -1.842377  1.363531 -0.994501
C -0.876601  1.906243 -2.061083
O -0.376581  0.890226 -2.903108
C  0.837369  0.262441 -2.538896
C  0.653847 -0.778267 -1.428395
O  1.789426 -1.626136 -1.490301
C  1.804556 -2.638176 -0.510493
H  1.100914 -0.810995  3.836197
H  2.196433 -0.777826  2.426993
H 1.654011 0.752522 3.169747
H -0.613838  1.356472  2.870447
H -1.391315 -0.21398   3.222502
H -2.677099  1.204711  1.591855
H -2.223466 -0.393107  0.931233
H -2.67252   2.073183 -0.844536
H -2.262026  0.403666 -1.331694
H -1.421708  2.603056 -2.710464
H -0.060035  2.451496 -1.566551
H  1.193695 -0.250591 -3.439512
H  1.589291  1.008246 -2.239759
H  0.586107 -0.300326 -0.44259 
H -0.270089 -1.350615 -1.609513
H  0.951792 -3.322528 -0.627653
H  2.733549 -3.197753 -0.639581
H  1.776129 -2.213953  0.503002
