30

C -0.687456  0.240417  5.489965
O -1.174624 -0.086727  4.207755
C -0.651327  0.699151  3.15618 
C -1.30331   0.198514  1.870725
O -0.769769  0.975237  0.815206
C -1.260661  0.656416 -0.473942
C -0.570761  1.616837 -1.452506
O -0.643323  1.112292 -2.77347 
C  0.537739  0.598588 -3.348204
C  0.897508 -0.786568 -2.796695
O  1.990223 -1.244488 -3.568587
C  2.473298 -2.521027 -3.214252
H -0.932562  1.277658  5.758392
H -1.171182 -0.437152  6.196106
H 0.401968 0.107663 5.549968
H 0.442558 0.589989 3.086438
H -0.885953  1.765178  3.303435
H -2.396095  0.317142  1.933977
H -1.075959 -0.869409  1.727656
H -2.353289  0.78458  -0.511977
H -1.022158 -0.385638 -0.736497
H -1.085542  2.586083 -1.441964
H  0.470411  1.767202 -1.13705 
H  0.344382  0.510212 -4.422822
H  1.384594  1.285186 -3.198395
H  1.173708 -0.722149 -1.73232 
H  0.033443 -1.463107 -2.893102
H  1.697803 -3.290255 -3.336214
H  3.307074 -2.742234 -3.883288
H  2.829271 -2.539591 -2.174501
