30

C  0.525174 -0.662135  4.178978
O -0.525376 -0.345802  3.292983
C -0.116769  0.264859  2.085985
C -1.38256   0.517245  1.271827
O -0.967985  1.104585  0.052061
C -1.962216  1.211866 -0.944148
C -1.363307  1.899542 -2.18334 
O -0.565037  1.054364 -2.981928
C  0.706351  0.690867 -2.470979
C  0.68663  -0.750872 -1.954849
O  2.017881 -1.060178 -1.58487 
C  2.182761 -2.319574 -0.97555 
H 1.074962 0.238829 4.485289
H  0.071561 -1.122711  5.058642
H  1.232113 -1.370182  3.723925
H  0.561907 -0.393163  1.520057
H 0.402212 1.216824 2.278742
H -2.059679  1.188226  1.822186
H -1.903485 -0.43559   1.092221
H -2.758999  1.921459 -0.658997
H -2.391853  0.23371  -1.196272
H -2.187909  2.229473 -2.824744
H -0.791321  2.779396 -1.851625
H  1.428649  0.762098 -3.294351
H  1.02189   1.368395 -1.66698 
H  0.012577 -0.841463 -1.091141
H  0.329542 -1.427    -2.747721
H  1.871661 -3.134097 -1.64509 
H  3.245208 -2.42831  -0.748221
H  1.605425 -2.390659 -0.042072
