30

C  1.1555   -0.794182  2.937424
O -0.007173 -0.578641  2.168409
C -0.572552  0.711557  2.307303
C -1.702692  0.841924  1.287296
O -1.146257  1.354503  0.090374
C -1.978963  1.280169 -1.053657
C -1.182932  1.820556 -2.248525
O -0.353927  0.850439 -2.843055
C  0.8357    0.49324  -2.158298
C  0.660128 -0.817201 -1.381681
O  1.961342 -1.352722 -1.205178
C  1.992164 -2.595339 -0.543412
H  0.956535 -0.657561  4.009897
H  1.467988 -1.825046  2.760761
H  1.96441  -0.114121  2.637228
H 0.181349 1.490416 2.117411
H -0.968465  0.8458    3.327366
H -2.480801  1.522709  1.669428
H -2.154041 -0.146291  1.11506 
H -2.884544  1.891688 -0.908309
H -2.284738  0.240784 -1.246185
H -1.885876  2.136967 -3.028286
H -0.597419  2.693329 -1.921222
H  1.609016  0.337562 -2.921268
H  1.161285  1.298991 -1.486892
H  0.180499 -0.646383 -0.40807 
H  0.031946 -1.50536  -1.969539
H  1.456706 -3.367597 -1.114557
H  3.041371 -2.883122 -0.447907
H  1.544448 -2.527068  0.458108
