30

C -0.34541  -0.324914  4.203858
O  0.575777 -0.641443  3.181847
C 0.595039 0.174886 2.031396
C -0.792433  0.468806  1.451991
O -0.560569  1.102186  0.206992
C -1.710684  1.305523 -0.597195
C -1.263857  1.985621 -1.897184
O -0.722472  1.083502 -2.833776
C  0.58663   0.597116 -2.587122
C  0.540143 -0.850163 -2.089177
O  1.884732 -1.282743 -2.002427
C  2.06022  -2.555877 -1.423981
H -1.37696  -0.568222  3.916731
H -0.069593 -0.933845  5.068037
H -0.293667  0.735989  4.486016
H  1.163937 -0.385861  1.279475
H 1.138159 1.114487 2.222867
H -1.375476  1.128863  2.113318
H -1.35007  -0.470866  1.31257 
H -2.432667  1.953951 -0.074952
H -2.199968  0.346308 -0.82428 
H -2.140519  2.434258 -2.379033
H -0.543476  2.781536 -1.65479 
H  1.136835  0.626951 -3.536391
H  1.11312   1.223853 -1.855796
H  0.050273 -0.903359 -1.106345
H -0.031213 -1.471555 -2.796931
H  1.551588 -3.336133 -2.007936
H  3.133315 -2.756917 -1.414776
H  1.679276 -2.581937 -0.392987
