30

C -0.720863  0.273328  5.517779
O -1.182767 -0.074847  4.231765
C -0.666299  0.717282  3.181505
C -1.288495  0.191405  1.891375
O -0.761442  0.974544  0.837258
C -1.227729  0.635492 -0.454833
C -0.547249  1.602628 -1.432559
O -0.634953  1.112088 -2.756939
C  0.538168  0.601503 -3.350365
C  0.896887 -0.793417 -2.823443
O  1.978869 -1.244872 -3.613966
C  2.45921  -2.529073 -3.284453
H -0.99608   1.305649  5.775769
H -1.19609  -0.4118    6.222395
H 0.370747 0.169186 5.592634
H 0.430839 0.635955 3.1265  
H -0.930196  1.77784   3.318285
H -2.384656  0.282231  1.939818
H -1.03193  -0.871227  1.758697
H -2.322755  0.729268 -0.516242
H -0.957445 -0.402258 -0.705571
H -1.05115   2.577    -1.398573
H  0.498928  1.742729 -1.12733 
H  0.333987  0.529877 -4.424242
H  1.389606  1.282006 -3.198796
H  1.185005 -0.746376 -1.761313
H  0.028476 -1.464243 -2.92054 
H  1.678556 -3.292507 -3.409834
H  3.28464  -2.74403  -3.965749
H  2.82619  -2.565362 -2.249013
