30

C 0.699277 0.507791 3.896185
O -0.412583  0.569827  3.033059
C -0.603175 -0.572236  2.226633
C -1.667369 -0.25447   1.179764
O -1.100051  0.633836  0.236235
C -1.962157  1.054393 -0.804926
C -1.200887  2.076752 -1.657389
O -0.302543  1.479147 -2.564381
C  0.896165  0.941116 -2.031512
C  0.828074 -0.588483 -1.996613
O  2.127648 -1.039573 -1.660546
C  2.258207 -2.438042 -1.558332
H 1.634893 0.380537 3.333864
H 0.732409 1.454355 4.438925
H  0.604599 -0.31782   4.61645 
H -0.948417 -1.424493  2.837967
H  0.327704 -0.876068  1.72272 
H -2.53834   0.209062  1.668746
H -1.991303 -1.188215  0.691853
H -2.864769  1.528998 -0.387021
H -2.270901  0.200109 -1.427389
H -1.920733  2.63541  -2.266998
H -0.677315  2.777633 -0.990011
H  1.718629  1.24027  -2.694198
H  1.095386  1.33031  -1.024991
H  0.094393 -0.927704 -1.251078
H  0.522436 -0.967928 -2.984624
H  2.018984 -2.934522 -2.50973 
H  3.298499 -2.644273 -1.298293
H  1.60325  -2.845719 -0.77435 
