30

C  0.50871  -0.624218  4.127791
O -0.554047 -0.363921  3.24022 
C -0.181733  0.30523   2.037773
C -1.312352  0.476631  1.279489
O -0.934832  1.131511  0.068519
C -1.946586  1.234833 -0.91703 
C -1.339902  1.926105 -2.144212
O -0.572914  1.056134 -2.944832
C  0.702882  0.677755 -2.455411
C  0.675394 -0.764837 -1.942653
O  2.006939 -1.08653  -1.585239
C  2.166293 -2.348834 -0.980232
H 0.99186  0.306269 4.457907
H  0.082569 -1.134226  4.993977
H  1.267403 -1.271132  3.664725
H  0.581526 -0.296015  1.5067  
H 0.300143 1.269501 2.288935
H -2.076076  1.085233  1.799976
H -1.793922 -0.489281  1.035992
H -2.790219  1.835368 -0.539709
H -2.321894  0.238288 -1.195503
H -2.153574  2.288375 -2.783368
H -0.738897  2.785334 -1.809982
H  1.413268  0.743777 -3.289641
H  1.038032  1.349105 -1.654399
H  0.008368 -0.850959 -1.073006
H  0.304918 -1.436338 -2.733287
H  1.842991 -3.159017 -1.649225
H  3.22963  -2.466861 -0.761962
H  1.596031 -2.417279 -0.042296
