30

C -1.988931  0.497567  5.505167
O -1.183792  0.028819  4.446793
C -1.137037  0.877602  3.317307
C -0.23783   0.192349  2.292713
O -0.17836   1.048229  1.168668
C 0.584484 0.562069 0.080203
C  0.459492  1.579179 -1.068885
O -0.400417  1.125052 -2.095849
C  0.18698   0.561914 -3.246014
C  0.654867 -0.88048  -3.01447 
O  1.087387 -1.360199 -4.272054
C  1.519094 -2.702667 -4.279874
H -3.035478  0.614307  5.190304
H -1.934409 -0.248106  6.300672
H -1.62535   1.461619  5.887989
H -0.720431  1.862929  3.579557
H -2.14173   1.026306  2.891605
H -0.660332 -0.78733   2.020236
H 0.764211 0.032744 2.721389
H  0.212223 -0.420813 -0.245594
H 1.640146 0.44687  0.377509
H  0.026047  2.501685 -0.664398
H  1.453783  1.814759 -1.47622 
H -0.587747  0.559547 -4.020533
H  1.034539  1.169712 -3.5987  
H  1.478974 -0.909126 -2.283208
H -0.178639 -1.485666 -2.624406
H  0.712205 -3.383873 -3.975401
H  1.817734 -2.93428  -5.304   
H  2.378327 -2.850719 -3.610487
