30

C  1.368166 -0.19213   2.938232
O 0.431778 0.101    1.928654
C -0.908894  0.137408  2.368907
C -1.835552  0.638157  1.236448
O -1.074711  1.155662  0.170003
C -1.811182  1.494273 -0.989456
C -0.814755  1.881622 -2.093424
O -0.501594  0.784092 -2.926439
C  0.703023  0.086157 -2.680679
C  0.659601 -0.745094 -1.393546
O  1.703371 -1.699576 -1.507335
C  1.861534 -2.515539 -0.370457
H  1.19955  -1.190496  3.36761 
H  2.354708 -0.164511  2.472092
H 1.330158 0.550764 3.747828
H -1.001031  0.799198  3.245775
H -1.223832 -0.877429  2.666825
H -2.514929  1.409261  1.637723
H -2.459148 -0.199644  0.879357
H -2.484126  2.341841 -0.779093
H -2.419034  0.641578 -1.328731
H -1.278814  2.642669 -2.734692
H  0.088446  2.30947  -1.637413
H  0.83306  -0.593328 -3.530401
H  1.55799   0.779233 -2.652227
H  0.81251  -0.114985 -0.508002
H -0.318496 -1.243689 -1.305891
H  0.960866 -3.116983 -0.179385
H  2.703151 -3.183285 -0.567169
H  2.078197 -1.915694  0.524909
