30

C  0.56093  -0.665802  4.137065
O -0.488872 -0.404375  3.231464
C -0.107077  0.286954  2.059733
C -1.376023  0.485415  1.235341
O -0.986575  1.149134  0.047853
C -1.979597  1.238385 -0.959753
C -1.353932  1.931842 -2.175982
O -0.559613  1.067738 -2.956203
C  0.704553  0.696745 -2.431701
C  0.673021 -0.750398 -1.93233 
O  1.990497 -1.057842 -1.515398
C  2.142982 -2.332985 -0.935775
H 1.177173 0.228161 4.303462
H  0.104894 -0.974541  5.079673
H  1.211411 -1.472005  3.768376
H  0.625023 -0.293624  1.476087
H 0.338973 1.263512 2.304588
H -2.105797  1.084721  1.80131 
H -1.827046 -0.493056  1.009541
H -2.836976  1.831186 -0.602159
H -2.338182  0.236905 -1.241921
H -2.157078  2.282618 -2.834521
H -0.770096  2.798968 -1.831809
H  1.43962   0.776508 -3.243074
H  1.009087  1.363462 -1.614893
H -0.033203 -0.852512 -1.095942
H  0.348989 -1.41998  -2.744698
H  1.870108 -3.130408 -1.641556
H  3.195844 -2.437678 -0.666013
H  1.526975 -2.437048 -0.030746
