30

C  0.573221 -0.660769  4.135032
O -0.490275 -0.377933  3.240485
C -0.107745  0.304308  2.064698
C -1.3764    0.504092  1.240186
O -0.984778  1.15745   0.047566
C -1.978221  1.244046 -0.959783
C -1.350978  1.927411 -2.180881
O -0.56001   1.05549  -2.955799
C  0.703628  0.684675 -2.429975
C  0.668295 -0.758318 -1.918997
O  1.985967 -1.06728  -1.50369 
C  2.135046 -2.337108 -0.911726
H 1.079476 0.272204 4.404576
H  0.121307 -1.253787  4.928022
H  1.323498 -1.298787  3.637737
H  0.620857 -0.284698  1.484885
H 0.34436  1.280531 2.301171
H -2.102348  1.11132   1.802599
H -1.83301 -0.47345  1.02163
H -2.833132  1.842316 -0.605375
H -2.340767  0.242136 -1.235337
H -2.153329  2.276563 -2.84126 
H -0.763997  2.794794 -1.842759
H  1.437876  0.755616 -3.242916
H  1.011319  1.356952 -1.618917
H -0.035656 -0.851172 -1.079634
H  0.339321 -1.433141 -2.725016
H  1.855734 -3.140464 -1.608205
H  3.188505 -2.443852 -0.645092
H  1.522245 -2.429147 -0.003203
