30

C  0.519811 -0.691818  4.179242
O -0.506672 -0.406879  3.246291
C -0.119653  0.278331  2.073577
C -1.385334  0.456323  1.238669
O -0.99635   1.123014  0.052705
C -1.98882   1.208265 -0.955925
C -1.3729    1.926889 -2.162438
O -0.566338  1.084942 -2.954083
C  0.705092  0.728991 -2.437086
C  0.697659 -0.721413 -1.946217
O  2.027424 -1.019745 -1.562851
C  2.203863 -2.295331 -0.991238
H  1.502305 -0.382039  3.806603
H  0.319185 -0.163403  5.119055
H  0.538766 -1.769911  4.373893
H  0.620664 -0.300397  1.499097
H 0.312489 1.263435 2.308322
H -2.127447  1.046682  1.79789 
H -1.820993 -0.528862  1.011935
H -2.856299  1.782563 -0.592637
H -2.33046   0.204532 -1.25084 
H -2.180979  2.275065 -2.816334
H -0.801571  2.797541 -1.806375
H  1.434916  0.823408 -3.251589
H  1.003878  1.396054 -1.618349
H  0.01275  -0.835644 -1.093844
H  0.360421 -1.388253 -2.755466
H  1.920864 -3.092799 -1.692985
H  3.2636   -2.392316 -0.74668 
H  1.61014  -2.407227 -0.072321
