30

C  0.563256 -0.662447  4.135201
O -0.487379 -0.374363  3.240061
C -0.08963   0.313496  2.064459
C -1.364363  0.503307  1.239268
O -0.976522  1.156648  0.045299
C -1.973282  1.242658 -0.958947
C -1.350833  1.927493 -2.181672
O -0.562649  1.056702 -2.960736
C  0.702663  0.684572 -2.439969
C  0.668661 -0.759357 -1.931489
O  1.988229 -1.070525 -1.523975
C  2.139975 -2.343383 -0.939265
H 1.049826 0.256681 4.490821
H  0.122192 -1.186889  4.985073
H  1.321942 -1.306043  3.667725
H  0.600746 -0.315986  1.486829
H 0.302837 1.30355  2.331834
H -2.093685  1.107445  1.800488
H -1.814852 -0.477414  1.022596
H -2.827674  1.839739 -0.601328
H -2.335617  0.240507 -1.233859
H -2.15575   2.277203 -2.838614
H -0.762774  2.794644 -1.844817
H  1.434011  0.756534 -3.255419
H  1.013518  1.355437 -1.628938
H -0.030813 -0.853251 -1.088485
H  0.334615 -1.4322   -2.737072
H  1.857259 -3.143099 -1.638544
H  3.194665 -2.451589 -0.678165
H  1.531437 -2.440074 -0.028339
