30

C  0.600497 -0.693564  4.085579
O -0.473972 -0.388755  3.224412
C -0.112509  0.322161  2.059669
C -1.38431   0.513204  1.2352  
O -0.993709  1.169963  0.044417
C -1.983146  1.248284 -0.967555
C -1.352272  1.926973 -2.18943 
O -0.55479   1.053398 -2.955865
C  0.704898  0.684628 -2.419029
C  0.66695  -0.759107 -1.910356
O  1.976932 -1.061256 -1.466842
C  2.122496 -2.335096 -0.882523
H 1.094535 0.219094 4.447207
H  0.182849 -1.236839  4.935365
H  1.347424 -1.325112  3.584189
H  0.597926 -0.24993   1.440874
H 0.333866 1.297098 2.307072
H -2.119393  1.113472  1.79372 
H -1.82984  -0.469012  1.015259
H -2.841289  1.845916 -0.619955
H -2.341639  0.243923 -1.239404
H -2.152449  2.269952 -2.855615
H -0.769664  2.798033 -1.853192
H  1.446703  0.758418 -3.224827
H  1.003599  1.356043 -1.603979
H -0.05464  -0.856541 -1.086593
H  0.359103 -1.43509  -2.72371 
H  1.866505 -3.134388 -1.592498
H  3.170195 -2.435607 -0.591873
H  1.489155 -2.440265  0.010304
