30

C -0.335023 -0.105843  5.16613 
O -1.011378 -0.247916  3.936965
C -0.497587  0.540474  2.882656
C -1.364308  0.253462  1.660134
O -0.837848  1.026547  0.598445
C -1.503603  0.877624 -0.642635
C -0.767964  1.770217 -1.65777 
O -0.713185  1.15224  -2.929709
C  0.511398  0.565003 -3.312502
C  0.829526 -0.704354 -2.512943
O  1.997227 -1.250245 -3.095073
C  2.467447 -2.430231 -2.48291 
H -0.383979  0.929281  5.532306
H -0.833294 -0.76358   5.880844
H  0.720259 -0.400401  5.07852 
H 0.550208 0.278372 2.666088
H -0.543934  1.612641  3.130491
H -2.409696  0.529323  1.86821 
H -1.327972 -0.82076   1.420667
H -2.56027   1.173934 -0.552214
H -1.471716 -0.170592 -0.976777
H -1.302114  2.721068 -1.778197
H  0.240229  1.986138 -1.278796
H  0.407318  0.300993 -4.37028 
H  1.342405  1.279289 -3.207713
H  1.001152 -0.462948 -1.452099
H -0.012451 -1.411912 -2.579481
H  1.721015 -3.235043 -2.539206
H  3.364788 -2.734041 -3.025337
H  2.723359 -2.258741 -1.427797
