30

C  0.498174 -0.2986    4.315378
O -0.551732 -0.102366  3.394659
C -0.145401 -0.014359  2.044834
C -1.396667  0.257802  1.207232
O -0.982572  1.013116  0.083218
C -1.962098  1.204361 -0.923014
C -1.312674  1.992478 -2.066885
O -0.516622  1.188918 -2.907949
C  0.741396  0.769986 -2.406007
C  0.697934 -0.710062 -2.015377
O  2.016848 -1.06296  -1.640804
C  2.15717  -2.371548 -1.138843
H 1.217653 0.531539 4.283947
H  0.046112 -0.345235  5.307913
H  1.033429 -1.238083  4.117501
H  0.338459 -0.951071  1.721569
H 0.575642 0.803558 1.889986
H -2.118604  0.829047  1.811753
H -1.87309  -0.682836  0.892342
H -2.815926  1.775613 -0.524233
H -2.330354  0.236656 -1.296316
H -2.103028  2.407631 -2.703101
H -0.724482  2.820008 -1.642265
H  1.481184  0.903294 -3.205957
H  1.046641  1.372591 -1.540963
H  0.001898 -0.867035 -1.17895 
H  0.355187 -1.313068 -2.871049
H  1.857544 -3.122441 -1.883754
H  3.21259  -2.50929  -0.895217
H  1.555399 -2.517644 -0.229625
