30

C 0.724717 0.496804 3.86207 
O -0.392765  0.57169   3.007351
C -0.620179 -0.579743  2.22464 
C -1.682223 -0.254744  1.177769
O -1.111301  0.633302  0.236435
C -1.969174  1.05342  -0.808289
C -1.205298  2.077401 -1.656487
O -0.30138   1.481629 -2.559103
C  0.896393  0.947108 -2.020597
C  0.832176 -0.582635 -1.984286
O  2.132549 -1.030024 -1.646263
C  2.265602 -2.427806 -1.538429
H 1.651574 0.333924 3.294447
H 0.787645 1.45249  4.385848
H  0.614802 -0.311906  4.599169
H -0.985842 -1.410011  2.854295
H  0.298398 -0.921234  1.722059
H -2.551569  0.211715  1.667108
H -2.009955 -1.186513  0.688632
H -2.874348  1.526576 -0.394263
H -2.273909  0.199167 -1.432788
H -1.923018  2.635106 -2.269479
H -0.686286  2.77886  -0.98617 
H  1.720832  1.247568 -2.68023 
H  1.090418  1.337999 -1.013718
H  0.098569 -0.923092 -1.239264
H  0.528705 -0.96383  -2.9723  
H  2.027339 -2.928584 -2.487821
H  3.306236 -2.631153 -1.277473
H  1.611302 -2.833482 -0.752841
