30

C  1.070367 -0.992187  3.221452
O -0.007775 -0.745621  2.345187
C -0.315965  0.626115  2.169474
C -1.518664  0.72285   1.224214
O -1.076984  1.342383  0.029193
C -1.990852  1.314787 -1.053954
C -1.270066  1.870633 -2.288829
O -0.465002  0.912583 -2.935644
C  0.745446  0.53946  -2.296466
C  0.602667 -0.828865 -1.624327
O  1.894519 -1.194469 -1.175851
C  1.916038 -2.329287 -0.339593
H  0.865139 -0.597208  4.226549
H  1.192448 -2.075293  3.279915
H  2.000451 -0.542536  2.847586
H 0.537803 1.161307 1.7272  
H -0.549561  1.088058  3.142164
H -2.328881  1.312838  1.681607
H -1.899443 -0.288526  1.018142
H -2.871024  1.939103 -0.829093
H -2.331149  0.287094 -1.25064 
H -2.019243  2.183561 -3.025519
H -0.675638  2.747501 -1.989954
H  1.52026   0.473455 -3.070997
H  1.051942  1.289218 -1.555553
H -0.095452 -0.773004 -0.777798
H  0.213508 -1.561131 -2.349659
H  1.586295 -3.230339 -0.876661
H  2.948175 -2.46609  -0.010033
H  1.270649 -2.186389  0.537907
