30

C  0.650619 -0.652988  3.98062 
O -0.534572 -0.447945  3.229995
C -0.1574    0.274758  2.065985
C -1.417924  0.485468  1.229819
O -1.012833  1.164037  0.0557  
C -1.986121  1.255721 -0.970696
C -1.332318  1.942282 -2.176031
O -0.521908  1.072897 -2.933807
C  0.724102  0.693317 -2.372948
C  0.669801 -0.75712  -1.885171
O  1.963748 -1.065086 -1.400358
C  2.092633 -2.351418 -0.839819
H 1.104037 0.303729 4.270267
H  0.377945 -1.206906  4.882402
H  1.38288  -1.237107  3.408098
H  0.580994 -0.291815  1.478852
H 0.279739 1.247734 2.33536 
H -2.15464   1.078234  1.79365 
H -1.866803 -0.489449  0.985025
H -2.847253  1.853842 -0.63147 
H -2.344239  0.255358 -1.257321
H -2.119539  2.29122  -2.854397
H -0.754698  2.809995 -1.822923
H  1.48504   0.776075 -3.159838
H  1.005273  1.352393 -1.541828
H -0.079942 -0.865719 -1.08837 
H  0.390721 -1.422312 -2.717547
H  1.86582  -3.135127 -1.576545
H  3.129366 -2.455378 -0.513274
H  1.427482 -2.478689  0.026587
