30

C  0.585861 -0.676358  4.107191
O -0.477373 -0.389907  3.226316
C -0.102695  0.30736   2.055508
C -1.374077  0.49995   1.233589
O -0.989096  1.163343  0.04439 
C -1.982471  1.245969 -0.962631
C -1.35104   1.931256 -2.189374
O -0.557111  1.058682 -2.959242
C  0.703403  0.686981 -2.426258
C  0.665019 -0.758077 -1.921444
O  1.975059 -1.061766 -1.479168
C  2.120744 -2.337772 -0.89961 
H 1.068875 0.244136 4.463931
H  0.159057 -1.21102   4.957913
H  1.344164 -1.309728  3.625469
H  0.631769 -0.268714  1.470519
H 0.338633 1.286032 2.300849
H -2.105182  1.097237  1.799924
H -1.821667 -0.48062   1.009999
H -2.83849   1.844165 -0.611323
H -2.342337  0.243437 -1.23865 
H -2.153291  2.276985 -2.851345
H -0.766993  2.799819 -1.849815
H  1.443504  0.76227  -3.233492
H  1.004633  1.355686 -1.609924
H -0.056352 -0.857454 -1.097711
H  0.356772 -1.431862 -2.736468
H  1.865006 -3.134422 -1.612641
H  3.168414 -2.439194 -0.60918 
H  1.487271 -2.446414 -0.007302
