30

C 0.949583 0.591501 2.232123
O -1.329150e-01  6.120000e-04  2.929266e+00
C -0.916361 -0.923592  2.230073
C -1.894033 -0.321983  1.201662
O -1.232896  0.627547  0.38472 
C -1.980746  1.083725 -0.72848 
C -1.12149   2.08765  -1.506194
O -0.154491  1.470461 -2.326643
C  1.011847  0.977013 -1.692232
C  0.966409 -0.549279 -1.573591
O  2.114518 -0.924381 -0.833338
C  2.238645 -2.309096 -0.600172
H 0.627298 1.475669 1.670512
H 1.683103 0.896917 2.983741
H  1.418536 -0.120174  1.542369
H -1.534502 -1.425777  2.988033
H -0.313791 -1.712768  1.747335
H -2.728454  0.16706   1.731424
H -2.306367 -1.141828  0.592446
H -2.904439  1.582062 -0.391704
H -2.255037  0.242091 -1.382934
H -1.772264  2.657946 -2.17956 
H -0.647876  2.781651 -0.795718
H  1.874298  1.264743 -2.307433
H  1.134655  1.41605  -0.693795
H  0.050488 -0.865946 -1.055345
H  0.975866 -1.008113 -2.57458 
H  2.306333 -2.869462 -1.543216
H  3.156885 -2.4557   -0.028115
H  1.387207 -2.6946   -0.020633
