30

C  0.591567 -0.68291   4.096968
O -0.475416 -0.391056  3.222435
C -0.105209  0.311296  2.053188
C -1.377903  0.507399  1.235267
O -0.990074  1.167695  0.044435
C -1.981628  1.248276 -0.965136
C -1.352951  1.928802 -2.187131
O -0.556915  1.056246 -2.95625 
C  0.703288  0.686024 -2.421611
C  0.665436 -0.758679 -1.915675
O  1.975334 -1.061478 -1.472348
C  2.121372 -2.337275 -0.892439
H 1.077339 0.235321 4.455785
H  0.168097 -1.221085  4.947138
H  1.346864 -1.314888  3.608723
H  0.625775 -0.262833  1.462164
H 0.338458 1.288287 2.301246
H -2.116798  1.104759  1.79079 
H -1.824517 -0.473869  1.010867
H -2.838807  1.845688 -0.614688
H -2.341194  0.244565 -1.238018
H -2.154249  2.272908 -2.85138 
H -0.76961   2.799266 -1.850607
H  1.444189  0.761177 -3.228127
H  1.003168  1.355702 -1.605577
H -0.056405 -0.857795 -1.092328
H  0.35796  -1.433182 -2.730398
H  1.86662  -3.134225 -1.60549 
H  3.168894 -2.438016 -0.601229
H  1.487323e+00 -2.446122e+00 -5.560000e-04
