30

C 0.993974 0.480965 2.180421
O -0.189164  0.200833  2.904419
C -1.034016 -0.796366  2.402417
C -1.876835 -0.400863  1.161387
O -1.254129  0.637607  0.43167 
C -1.97653   1.06985  -0.707419
C -1.128566  2.107479 -1.453021
O -0.163433  1.526379 -2.302779
C  1.012781  1.021534 -1.698065
C  0.962332 -0.505562 -1.588187
O  2.113879 -0.892515 -0.859707
C  2.259655 -2.283919 -0.685087
H 0.835186 1.294451 1.46405 
H 1.751707 0.792065 2.906157
H  1.357377 -0.402171  1.641948
H -1.724072 -1.05807   3.213154
H -0.445673 -1.697465  2.151143
H -2.875278 -0.065443  1.491764
H -2.01656  -1.291289  0.526946
H -2.930173  1.530059 -0.40064 
H -2.196787  0.222531 -1.37479 
H -1.786128  2.697749 -2.102059
H -0.654481  2.778096 -0.721122
H  1.862148  1.309185 -2.330993
H  1.160807  1.454228 -0.700187
H  0.049125 -0.822409 -1.065358
H  0.961693 -0.957264 -2.592473
H  2.34317  -2.801589 -1.651011
H  3.176682 -2.439718 -0.113505
H  1.411319 -2.70837  -0.129053
