30

C  0.590834 -0.676529  4.098908
O -0.472942 -0.393417  3.217616
C -0.10119   0.311815  2.050626
C -1.372477  0.499053  1.227298
O -0.99028   1.170319  0.041793
C -1.983682  1.251445 -0.96727 
C -1.351584  1.933458 -2.186087
O -0.556247  1.059535 -2.953917
C  0.702912  0.686807 -2.418488
C  0.662882 -0.759005 -1.915958
O  1.971567 -1.063754 -1.47042 
C  2.115549 -2.341165 -0.893501
H 1.066892 0.245643 4.460633
H  0.166391 -1.218022  4.946488
H  1.354277 -1.302426  3.615535
H  0.638436 -0.256326  1.464412
H 0.332693 1.292493 2.301194
H -2.108744  1.088675  1.795056
H -1.812796 -0.48367   0.998699
H -2.84661   1.831555 -0.603096
H -2.335733  0.246064 -1.245427
H -2.150299  2.280501 -2.852135
H -0.766911  2.802051 -1.847108
H  1.444895  0.762887 -3.223932
H  1.00253   1.354372 -1.600671
H -0.060863 -0.859615 -1.094485
H  0.356756 -1.43138  -2.732947
H  1.862185 -3.136087 -1.609304
H  3.162304 -2.443174 -0.599996
H  1.479265 -2.452104 -0.003496
