30

C  0.516648 -0.661954  4.196477
O -0.500491 -0.419835  3.242079
C -0.111439  0.262563  2.068408
C -1.378496  0.454349  1.23869 
O -0.988144  1.121366  0.053359
C -1.982273  1.214713 -0.952928
C -1.364644  1.931761 -2.159518
O -0.565371  1.086313 -2.954806
C  0.705367  0.721852 -2.442025
C  0.690786 -0.729351 -1.953687
O  2.019572 -1.035648 -1.57327 
C  2.189483 -2.31191  -1.00113 
H  1.434711 -0.114395  3.956008
H  0.1575   -0.344431  5.180703
H  0.75115  -1.733632  4.230585
H  0.621421 -0.321582  1.489434
H 0.331076 1.242587 2.30435 
H -2.113287  1.049388  1.802648
H -1.823673 -0.526187  1.010427
H -2.845338  1.793742 -0.586642
H -2.330839  0.21369  -1.248936
H -2.172092  2.286349 -2.810748
H -0.786966  2.798087 -1.803142
H  1.433444  0.813493 -3.258403
H  1.010395  1.385617 -1.6229  
H  0.006813 -0.841168 -1.100258
H  0.348359 -1.392979 -2.763399
H  1.899859 -3.108123 -1.701595
H  3.249184 -2.415268 -0.759052
H  1.597294 -2.419407 -0.080709
