30

C -1.766797 -1.037557  5.206645
O -1.17258  -0.247264  4.201451
C -1.712169 -0.430116  2.907725
C -0.939444  0.499016  1.97626 
O -1.480665  0.317799  0.682538
C -0.859119  1.072244 -0.341872
C -1.507396  0.667221 -1.678637
O -0.71375  -0.218465 -2.437022
C  0.407784  0.312736 -3.119315
C  1.682094 -0.362261 -2.604965
O  2.754142  0.194808 -3.338823
C  4.021959 -0.345092 -3.039111
H -1.647439 -2.109605  4.995609
H -1.258456 -0.797111  6.14238 
H -2.838171 -0.814778  5.309802
H -2.783284 -0.174452  2.885777
H -1.596179 -1.473177  2.573885
H 0.131023 0.241233 1.995217
H -1.052505  1.542685  2.309656
H  0.221956  0.869093 -0.365658
H -1.001907  2.149991 -0.159276
H -2.437816  0.131193 -1.463944
H -1.746119  1.568388 -2.264676
H  0.2993    0.104206 -4.192692
H  0.48636   1.399944 -2.983907
H  1.803118 -0.174673 -1.525982
H  1.616273 -1.450031 -2.7612  
H  4.057189 -1.423224 -3.249395
H  4.745112  0.168811 -3.675336
H  4.287495 -0.181562 -1.985115
