30

C  0.551278 -0.661178  4.151095
O -0.491475 -0.410152  3.233325
C -0.107706  0.27886   2.061074
C -1.376168  0.478149  1.235999
O -0.985987  1.142747  0.049242
C -1.979279  1.23431  -0.957926
C -1.354802  1.93277  -2.171893
O -0.560382  1.072206 -2.955867
C  0.70503   0.701316 -2.434372
C  0.676007 -0.746809 -1.937694
O  1.995861 -1.05533  -1.529142
C  2.150926 -2.330538 -0.950368
H 1.222979 0.202854 4.23936 
H  0.090107 -0.866743  5.119148
H  1.148454 -1.531641  3.842976
H  0.623717 -0.303031  1.477818
H 0.33921  1.255238 2.304818
H -2.10604   1.0772    1.802117
H -1.827352 -0.500005  1.009202
H -2.837263  1.824855 -0.598078
H -2.336731  0.23338  -1.24346 
H -2.158624  2.285469 -2.828587
H -0.77138   2.799013 -1.824801
H  1.438427  0.78318  -3.247041
H  1.010522  1.366918 -1.616987
H -0.025261 -0.850547 -1.097355
H  0.347104 -1.414614 -2.749569
H  1.873032 -3.127818 -1.654352
H  3.205357 -2.436057 -0.687135
H  1.540448 -2.434004 -0.041525
