30

C  0.602696 -0.676255  4.141803
O -0.502199 -0.384595  3.228878
C -0.114948  0.303921  2.060182
C -1.382348  0.501065  1.232129
O -0.989437  1.159193  0.04246 
C -1.980104  1.245924 -0.967495
C -1.34981   1.930655 -2.186281
O -0.555803  1.060049 -2.959731
C  0.705398  0.687414 -2.42927 
C  0.66758  -0.757752 -1.924635
O  1.98176  -1.066785 -1.498378
C  2.128247 -2.341826 -0.917073
H 1.071482 0.254309 4.477401
H  0.163963 -1.203189  4.988021
H  1.345308 -1.309459  3.645605
H  0.617447 -0.278222  1.478205
H 0.330668 1.282088 2.300672
H -2.112315  1.103983  1.793899
H -1.834392 -0.477648  1.009527
H -2.836371  1.84345  -0.615044
H -2.341413  0.24407  -1.244896
H -2.150431  2.279678 -2.848812
H -0.764528  2.798264 -1.845788
H  1.443665  0.762026 -3.23824 
H  1.008952  1.356192 -1.613805
H -0.044056 -0.855051 -1.092311
H  0.347072 -1.429713 -2.736436
H  1.858976 -3.139192 -1.624315
H  3.179068 -2.448094 -0.640008
H  1.505884 -2.4445   -0.016243
