30

C  1.301341 -0.425338  2.939054
O  0.20059  -0.386681  2.059214
C -0.825322  0.511262  2.440271
C -1.809041  0.635762  1.279501
O -1.135649  1.235528  0.191034
C -1.879128  1.320572 -1.011569
C -0.956829  1.888474 -2.102381
O -0.371352  0.882057 -2.898072
C  0.857793  0.326858 -2.471213
C  0.673851 -0.768593 -1.413857
O  1.849012 -1.561938 -1.461849
C  1.856758 -2.638004 -0.553175
H  1.0005   -0.753551  3.944335
H  2.013311 -1.142704  2.526894
H 1.784669 0.558451 3.017605
H -0.407681  1.498913  2.686407
H -1.357222  0.106099  3.317342
H -2.669678  1.247786  1.595727
H -2.174105 -0.365072  0.999398
H -2.747519  1.985415 -0.873135
H -2.245195  0.328528 -1.316098
H -1.553986  2.507527 -2.783658
H -0.189187  2.52063  -1.632781
H  1.310394 -0.126898 -3.360652
H  1.532449  1.110909 -2.096296
H  0.540495 -0.340531 -0.411549
H -0.213441 -1.372442 -1.662893
H  1.037528 -3.342248 -0.758305
H  2.811729 -3.154121 -0.673484
H  1.764927 -2.28665   0.484206
