30

C  0.574218 -0.671098  4.106311
O -0.48138  -0.3665    3.232309
C -0.104908  0.324603  2.056678
C -1.375669  0.513523  1.233054
O -0.989449  1.167755  0.039301
C -1.983332  1.245218 -0.968427
C -1.358061  1.923306 -2.193505
O -0.563868  1.049387 -2.962907
C  0.699587  0.683574 -2.432998
C  0.666821 -0.758425 -1.919016
O  1.981993 -1.059863 -1.490607
C  2.133127 -2.329987 -0.899718
H 1.149669 0.164237 4.525932
H  0.128413 -1.214585  4.945156
H  1.300082 -1.341389  3.616881
H  0.62883  -0.257142  1.476375
H 0.337702 1.303618 2.296   
H -2.105858  1.116109  1.794972
H -1.824961 -0.467846  1.016378
H -2.840131  1.842772 -0.61742 
H -2.342631  0.240554 -1.238081
H -2.161351  2.26569  -2.856254
H -0.774154  2.794717 -1.860465
H  1.43589   0.755082 -3.244023
H  1.003065  1.358329 -1.622453
H -0.044596 -0.852789 -1.086119
H  0.348699 -1.436831 -2.726378
H  1.866284 -3.133601 -1.600764
H  3.184429 -2.430461 -0.622376
H  1.511548e+00 -2.427957e+00  2.184000e-03
