30

C -0.75845   0.305359  5.543013
O -1.198552 -0.059459  4.253968
C -0.680814  0.732594  3.204274
C -1.278251  0.187482  1.91043 
O -0.750182  0.971051  0.85713 
C -1.195261  0.615853 -0.43807 
C -0.521048  1.58895  -1.413663
O -0.624801  1.106117 -2.740355
C  0.541151  0.601156 -3.352426
C  0.900559 -0.801716 -2.847429
O  1.974447 -1.245724 -3.653013
C  2.451915 -2.536724 -3.346658
H -1.052615  1.335247  5.789586
H -1.232142 -0.381675  6.246806
H 0.333578 0.218517 5.632473
H 0.418063 0.6678   3.16392 
H -0.962689  1.789959  3.329457
H -2.376218  0.261343  1.944416
H -1.003369 -0.87192   1.788964
H -2.290672  0.690502 -0.513784
H -0.903837 -0.418681 -0.679016
H -1.032191  2.559558 -1.3745  
H  0.527043  1.730666 -1.117624
H  0.32664   0.544494 -4.425205
H  1.395819  1.277303 -3.199842
H  1.197629 -0.76957  -1.787164
H  0.02929  -1.468592 -2.945896
H  1.666975 -3.294905 -3.477029
H  3.270846 -2.744919 -4.037832
H  2.827149 -2.590064 -2.314913
