30

C 0.960113 0.585662 2.215973
O -0.147668  0.057089  2.92338 
C -0.932506 -0.897046  2.268958
C -1.883622 -0.353083  1.181266
O -1.236441  0.631323  0.396267
C -1.97733   1.081587 -0.72386 
C -1.120065  2.094526 -1.492078
O -0.152514  1.486522 -2.319128
C  1.013907  0.986466 -1.690486
C  0.963839 -0.540222 -1.577543
O  2.109111 -0.922393 -0.836584
C  2.229364 -2.308905 -0.611907
H 0.671782 1.460651 1.622568
H 1.699195 0.891689 2.962149
H  1.409031 -0.164199  1.55421 
H -1.572331 -1.340342  3.045493
H -0.334534 -1.727055  1.85297 
H -2.772603  0.089358  1.661432
H -2.217457 -1.195567  0.554594
H -2.909476  1.569595 -0.395159
H -2.236892  0.238556 -1.382533
H -1.771574  2.670339 -2.159978
H -0.647088  2.782297 -0.775245
H  1.875098  1.273893 -2.30751 
H  1.141519  1.421353 -0.69083 
H  0.045982 -0.856061 -1.062296
H  0.97359  -0.995329 -2.580232
H  2.298169 -2.863351 -1.558355
H  3.145839 -2.461311 -0.038542
H  1.375571 -2.696042 -0.036974
