30

C  0.331385 -0.618651  4.330023
O -0.627002 -0.329301  3.336731
C -0.112582  0.312351  2.187195
C -1.292287  0.531246  1.242531
O -0.781749  1.151445  0.067957
C -1.867623  1.231255 -0.853428
C -1.363887  1.891976 -2.143566
O -0.65926   1.001976 -2.97885 
C  0.655453  0.643657 -2.586781
C  0.680697 -0.776428 -2.013924
O  2.044438 -1.10331  -1.819611
C  2.268571 -2.337714 -1.178956
H 0.809692 0.297757 4.703192
H -0.198246 -1.107071  5.150162
H  1.110226 -1.294264  3.949214
H  0.646961 -0.31363   1.691959
H 0.347539 1.278956 2.445666
H -2.045932  1.172148  1.723252
H -1.753975 -0.437179  1.001427
H -2.679409  1.838881 -0.425526
H -2.254564  0.226875 -1.07679 
H -2.22708   2.235152 -2.725915
H -0.742072  2.761605 -1.88217 
H  1.288292  0.672837 -3.483138
H  1.058025  1.349887 -1.849214
H  0.132635 -0.819255 -1.061948
H  0.204478 -1.472762 -2.722272
H  1.854816 -3.173716 -1.760766
H  3.349988 -2.461618 -1.092686
H  1.822483 -2.353106 -0.173749
