30

C -0.722207  0.272406  5.517004
O -1.186043 -0.072791  4.230879
C -0.665691  0.717206  3.180932
C -1.290618  0.195048  1.89061 
O -0.759904  0.976176  0.83684 
C -1.227856  0.639993 -0.455488
C -0.544002  1.604519 -1.433501
O -0.633618  1.109524 -2.75683 
C  0.539069  0.598633 -3.350905
C  0.898209 -0.795389 -2.821796
O  1.980432 -1.24797  -3.611357
C  2.460243 -2.531991 -3.280351
H -0.992144  1.305987  5.775548
H -1.200807 -0.410644  6.221353
H 0.368874 0.162692 5.59167 
H 0.431028 0.630411 3.125825
H -0.924261  1.779017  3.318206
H -2.386315  0.291108  1.939298
H -1.03918  -0.868744  1.757263
H -2.322341  0.737939 -0.516732
H -0.961484 -0.398769 -0.706904
H -1.05491   2.575724 -1.409518
H  0.500997  1.748592 -1.127907
H  0.334077  0.525364 -4.42452 
H  1.390474  1.279512 -3.20099 
H  1.186002 -0.746471 -1.759644
H  0.029913 -1.466503 -2.917872
H  1.679355 -3.295283 -3.405135
H  3.28579  -2.747972 -3.961192
H  2.826928 -2.567323 -2.244766
