30

C  0.580763 -0.672175  4.115911
O -0.482523 -0.385048  3.230584
C -0.104462  0.307021  2.058265
C -1.374689  0.503332  1.235402
O -0.986733  1.162485  0.044856
C -1.979983  1.246644 -0.962873
C -1.352564  1.928445 -2.184769
O -0.559278  1.056083 -2.956872
C  0.70278   0.685613 -2.426873
C  0.666273 -0.758412 -1.918938
O  1.979502 -1.063454 -1.487117
C  2.127223 -2.337274 -0.90335 
H 1.073855 0.252752 4.441116
H  0.144087 -1.229779  4.944912
H  1.335351 -1.307338  3.62734 
H  0.627554 -0.273994  1.474959
H 0.341398 1.284429 2.300853
H -2.103349  1.105039  1.800232
H -1.826491 -0.475775  1.013861
H -2.835531  1.844779 -0.609759
H -2.341611  0.244016 -1.236983
H -2.154681  2.27486  -2.84685 
H -0.767343  2.797483 -1.847849
H  1.440359  0.759158 -3.236572
H  1.00647   1.356245 -1.613005
H -0.048277 -0.855097 -1.08897 
H  0.350094 -1.433123 -2.73015 
H  1.862811 -3.136382 -1.610446
H  3.177265 -2.440219 -0.622158
H  1.50174  -2.440313 -0.004739
