30

C  0.94749  -0.895468  3.630926
O -0.238846 -0.555059  2.948143
C -0.080775  0.434892  1.958345
C -1.387703  0.530834  1.159473
O -1.099456  1.344796  0.039362
C -2.034666  1.315494 -1.024216
C -1.359635  1.934771 -2.255094
O -0.496382  1.038769 -2.920914
C  0.706065  0.684538 -2.256059
C  0.627874 -0.766758 -1.769777
O  1.709525 -0.960456 -0.87684 
C  1.825895 -2.271258 -0.369425
H  1.37205  -0.026938  4.153521
H  0.685317 -1.662008  4.362792
H  1.703498 -1.29736   2.941579
H 0.629353 0.138716 1.167426
H 0.204898 1.405349 2.385469
H -2.204036  0.9634    1.760009
H -1.685005 -0.481401  0.846319
H -2.932884  1.899111 -0.764346
H -2.341665  0.282776 -1.247114
H -2.12999   2.20914  -2.984825
H -0.819911  2.842862 -1.94664 
H  1.532254  0.789004 -2.971536
H  0.899518  1.34342  -1.401095
H -0.33208  -0.940364 -1.261036
H  0.694024 -1.45976  -2.623007
H  2.012348 -2.996055 -1.174338
H  2.673561 -2.27289   0.318837
H  0.919374 -2.572096  0.174081
