30

C  0.567627 -0.673284  4.126517
O -0.491778 -0.377886  3.243948
C -0.106572  0.297941  2.064099
C -1.376238  0.506191  1.243399
O -0.98223   1.150121  0.046276
C -1.975526  1.239066 -0.958764
C -1.355468  1.921686 -2.185264
O -0.561054  1.055598 -2.963741
C  0.703313  0.686736 -2.438452
C  0.671013 -0.757103 -1.929455
O  1.987979 -1.061958 -1.508874
C  2.139884 -2.333767 -0.921938
H 1.068257 0.242374 4.471195
H  0.132538 -1.189533  4.984377
H  1.31316  -1.326426  3.651326
H  0.614619 -0.299551  1.484031
H 0.354836 1.270438 2.2967  
H -2.094175  1.12315   1.805398
H -1.843058 -0.467824  1.030958
H -2.817832  1.866152 -0.622569
H -2.354249  0.242022 -1.227072
H -2.163435  2.263757 -2.842195
H -0.773388  2.793625 -1.850304
H  1.437285  0.760536 -3.251342
H  1.009673  1.358434 -1.626362
H -0.036283 -0.853444 -1.093304
H  0.347952 -1.432142 -2.737683
H  1.867523 -3.135178 -1.623395
H  3.19251  -2.437031 -0.650682
H  1.523125 -2.432704 -0.016808
