30

C -0.96855714  0.51703425  5.71300305
O -1.28571022  0.05410311  4.37482474
C -0.82772039  0.85864746  3.31137467
C -1.17312411  0.10750116  2.03323011
O -0.67365423  0.89736436  1.00517813
C -0.94216786  0.42526236 -0.28599844
C -0.33163665  1.5252483  -1.28199122
O -0.55002697  1.02627326 -2.62423308
C  0.55546486  0.61326963 -3.39837617
C  0.86039885 -0.80314402 -3.07830462
O  1.95166884 -1.20144829 -3.86533133
C  2.33942037 -2.52529746 -3.75081513
H -1.45708115  1.5399861   5.88916053
H -1.39273308 -0.2184763   6.42363437
H 0.12875427 0.49494307 5.81412593
H 0.34954657 0.93168201 3.41294762
H -1.30374179  1.82326006  3.35154038
H -2.22652455 -0.17278563  1.95923515
H -0.65078189 -0.9246816   2.01781554
H -1.95725209  0.37583777 -0.45488723
H -0.42958086 -0.52321988 -0.59205278
H -0.98276147  2.46818701 -1.07563017
H  0.66089283  1.6357989  -1.07403739
H  0.3357203   0.80220978 -4.45452267
H  1.46037041  1.27141968 -3.18448887
H  1.0571305  -1.05380179 -1.99265388
H  0.0141395  -1.53084443 -3.41135403
H  1.44217829 -3.23455981 -3.91410457
H  3.18622837 -2.80635075 -4.46117706
H  2.70404847 -2.65628872 -2.69518757
