30

C  0.55196914 -0.77443348  4.08533595
O -0.54589041 -0.39858156  3.24063251
C -0.15280522  0.27137506  2.0745678 
C -1.41502149  0.46651179  1.24890402
O -1.024721    1.16793076  0.0665451 
C -1.99859828  1.20790114 -0.96628811
C -1.41069147  1.88169168 -2.13852977
O -0.58354553  1.06047009 -2.93763581
C  0.74146171  0.75612767 -2.42440917
C  0.72549808 -0.67732991 -1.94246185
O  2.04969425 -0.97854593 -1.42717768
C  2.22245159 -2.25658605 -1.02213118
H  1.440887   -1.17253346  3.5218461 
H 0.9221849  0.21133905 4.62625538
H  0.13441149 -1.49913666  4.67326153
H  0.59218546 -0.3499476   1.50453617
H 0.39416876 1.20125779 2.28152081
H -2.17652803  0.96503386  1.85286434
H -1.82551981 -0.53918268  0.94630009
H -2.91649065  1.66664759 -0.57768751
H -2.32162686  0.23860534 -1.20892375
H -2.06941594  2.20996073 -2.79242877
H -0.78950923  2.73727605 -1.79604406
H  1.475728    0.77836469 -3.19303752
H  0.98621408  1.37281003 -1.65722186
H  0.03047407 -0.82154438 -1.17886102
H  0.53588406 -1.38626745 -2.76780681
H  2.07821762 -2.90592311 -1.87648851
H  3.2969707  -2.32685074 -0.66703189
H  1.49543953 -2.51456313 -0.19874914
