30

C  0.49107144 -0.79934613  4.07254896
O -0.57532304 -0.4948056   3.23896382
C -0.14588344  0.20178122  2.10022885
C -1.42682873  0.53505966  1.2296517 
O -1.04058439  1.26322482  0.05978375
C -2.01707787  1.3033126  -0.98172408
C -1.36019372  1.95765487 -2.19584502
O -0.54794742  1.0774823  -2.96795447
C  0.74260498  0.67930496 -2.43373512
C  0.6896409  -0.81301748 -1.91135521
O  1.95635699 -1.05433818 -1.48134763
C  2.1126537 -2.3634783 -0.8845375
H  1.40706899 -0.57755011  3.57106919
H  0.49488274 -0.1307403   4.9921927 
H  0.54080395 -1.83218483  4.47906878
H  0.4767258  -0.59998265  1.54263227
H 0.34820757 1.23246785 2.19619509
H -2.17524878  1.13015708  1.84359912
H -2.0046575  -0.35014555  0.88069286
H -2.81642213  1.95322359 -0.65419856
H -2.32812268  0.23800762 -1.22005589
H -2.14548563  2.41828532 -2.85182157
H -0.72651811  2.82408233 -1.82144812
H  1.44505272  0.73421239 -3.21680599
H  1.0697071   1.2819419  -1.66888995
H -0.10585763 -0.88302974 -1.04438347
H  0.35686614 -1.44306274 -2.70999083
H  1.87774342 -3.13230932 -1.63813064
H  3.13246107 -2.53045973 -0.52397764
H  1.47228748 -2.5011904  -0.11666384
