30

C  1.3805482  -0.44516662  2.87121129
O  0.19044821 -0.43573726  2.0569296 
C -0.83100631  0.49887671  2.42480574
C -1.86130254  0.66594602  1.28962765
O -1.20354703  1.2351722   0.20242723
C -1.90545766  1.32723658 -1.0051002 
C -0.91619543  1.87894576 -2.07862089
O -0.34943787  0.93788671 -2.9409728 
C  0.8717977   0.3298439  -2.48651817
C  0.68624115 -0.77293448 -1.39589803
O  1.82753057 -1.58316139 -1.45342269
C  1.86804854 -2.5995086  -0.47042527
H  1.08959614 -0.62227225  3.87898735
H  1.98449688 -1.17326511  2.39389765
H 1.92885255 0.57413883 2.8887085 
H -0.30349975  1.44513147  2.62676088
H -1.35439692  0.06534036  3.31178371
H -2.72928642  1.30987118  1.62806955
H -2.27327788 -0.36581395  0.98575419
H -2.8059145   1.94923887 -0.88324402
H -2.17227202  0.26149525 -1.34781181
H -1.51906107  2.57089866 -2.83485337
H -0.15812798  2.39770895 -1.55912286
H  1.20823352 -0.07231668 -3.44688554
H  1.52142602  1.080523   -2.22048265
H  0.62104767 -0.28562309 -0.34509456
H -0.10787292 -1.51003185 -1.62388074
H  1.01345064 -3.29238554 -0.47057423
H  2.69832078 -3.33380061 -0.70352955
H  1.95522447 -2.16803525  0.62135103
