30

C  0.60199305 -0.66491347  4.08970871
O -0.46631775 -0.35612415  3.24217546
C -0.06257207  0.29964314  2.03999147
C -1.38623053  0.45562763  1.17267032
O -0.94902923  1.09678919  0.02555528
C -1.97252135  1.18511011 -0.94933616
C -1.37689706  1.9663707  -2.18499365
O -0.52478771  1.09784631 -2.94908145
C  0.69608404  0.71243219 -2.4245573 
C  0.66875044 -0.72207791 -1.91935836
O  1.94199524 -1.04929415 -1.3990069 
C  2.04442693 -2.3614357  -0.91540858
H 1.05606777 0.27395541 4.46119533
H  0.21941749 -1.18730142  4.95481703
H  1.35851584 -1.19786807  3.63145893
H  0.61700882 -0.29150562  1.48930096
H 0.3315277  1.31251528 2.22975708
H -2.14997527  1.16236724  1.76346562
H -1.71209898 -0.53227755  0.99091755
H -2.91629023  1.80045376 -0.61473844
H -2.37062358  0.15798093 -1.30011869
H -2.14092262  2.26212293 -2.86495139
H -0.81454486  2.89689096 -1.89633963
H  1.4047825   0.77905895 -3.21653028
H  0.99219564  1.39675143 -1.65851734
H -0.08035129 -0.90257666 -1.12484703
H  0.42330203 -1.48484967 -2.74863054
H  1.82988508 -3.16345744 -1.69864143
H  3.05790438 -2.35288494 -0.47974049
H  1.44864985 -2.54284168 -0.13880788
