30

C -0.15244398 -0.13605114  4.45302354
O  0.09458616 -0.78776671  3.22243396
C  0.32098639 -0.00942411  2.0296071 
C -1.00211007  0.35781256  1.30562307
O -0.63797755  1.02110931  0.15544679
C -1.78794311  1.12101247 -0.66017395
C -1.29435361  1.90970662 -1.90935898
O -0.61695446  1.16951706 -2.85414585
C  0.71461572  0.71628673 -2.46694686
C  0.54534858 -0.74585385 -2.1333637 
O  1.92058864 -1.25983563 -2.01854872
C  2.13478143 -2.53745284 -1.5341916 
H -1.19083396  0.42262474  4.32722288
H -0.21842203 -0.80140491  5.22974754
H 0.64476868 0.59775141 4.78548518
H  0.9542813  -0.53221829  1.44758506
H 0.93843606 0.84116877 2.42464224
H -1.63412727  0.96447146  1.96335157
H -1.51454706 -0.55404296  1.20272055
H -2.61881258  1.66370847 -0.23449722
H -2.21365001  0.09751702 -0.82636211
H -2.07977187  2.44264613 -2.42558275
H -0.68813979  2.72155544 -1.55870311
H  1.25821101  0.84238935 -3.35138798
H  1.32192994  1.26485088 -1.69577706
H  0.10787905 -0.88666643 -1.25313211
H  0.0533382  -1.21554725 -3.03598635
H  1.78243112 -3.2270093  -2.13953015
H  3.18152685 -2.76635112 -1.3556958 
H  1.50634601 -2.83375636 -0.61881361
