30

C  1.05615708 -1.03081038  3.27685272
O -0.02131075 -0.77136759  2.36890725
C -0.28012165  0.6212534   2.15522703
C -1.47916251  0.68829706  1.23888328
O -1.00060277  1.23301645 -0.03881899
C -1.96074619  1.35955633 -1.02884369
C -1.25511126  1.91809285 -2.29516279
O -0.52700406  0.90004906 -2.95788293
C  0.70225456  0.51105517 -2.367595  
C  0.58011668 -0.82168814 -1.65383116
O  1.87711466 -1.11594179 -1.18973765
C  1.90814561 -2.26725207 -0.2239132 
H  0.82802524 -0.60915447  4.29053268
H  1.21462995 -2.06495328  3.38469979
H  1.97540742 -0.59663211  2.83354299
H 0.61900885 1.08237605 1.68924276
H -0.58806268  0.92719663  3.178272  
H -2.29515629  1.28909938  1.64696324
H -1.90143684 -0.28497832  1.05687568
H -2.66665901  2.02740477 -0.70383501
H -2.54892797  0.36924503 -1.28388274
H -2.00669265  2.30882027 -3.02766398
H -0.59000369  2.73835798 -1.93474979
H  1.4920942   0.52245259 -3.05988435
H  0.94005747  1.34587828 -1.69214358
H -0.15185749 -0.75132752 -0.70941856
H  0.21683449 -1.60000848 -2.43114876
H  1.55372889 -3.11091881 -0.78127589
H  2.92588804 -2.37326792  0.11143141
H  1.27205311 -2.08811534  0.58299533
