30

C  1.06842703 -1.08789036  3.39130994
O -0.06635639 -0.80335594  2.51922255
C -0.0705824   0.48005303  1.96077856
C -1.37539814  0.60622429  1.17253251
O -1.04168924  1.36976097 -0.02580912
C -2.04451863  1.33431295 -1.0297874 
C -1.37172782  1.86562441 -2.31019881
O -0.53279005  0.98242906 -2.92090223
C  0.73997757  0.63048159 -2.32109421
C  0.62999479 -0.79972185 -1.81040124
O  1.73703866 -0.93646457 -0.85871438
C  1.6988369  -2.14227317 -0.10088162
H  0.99446428 -0.32340224  4.17391455
H  0.96434107 -2.15440489  3.71661764
H  2.06742599 -0.94144628  2.88900369
H 0.76319183 0.43197513 1.14859644
H 0.03611493 1.21853606 2.6284411 
H -2.07123394  1.08665705  1.79762203
H -1.81175979 -0.30020106  0.83467107
H -2.90486933  1.90881275 -0.80736016
H -2.28139526  0.26671653 -1.1877947 
H -2.16160727  2.14060781 -3.06801728
H -0.89589371  2.83897311 -2.0613563 
H  1.50966918  0.65860221 -3.16799959
H  1.00186129  1.28246372 -1.48070943
H -0.40939321 -0.84460107 -1.3048219 
H  0.75850106 -1.60539201 -2.67389986
H  1.78704801 -3.03899086 -0.7855714 
H  2.61967217 -2.10728959  0.55665845
H  0.73520787 -2.29175961  0.51583805
