30

C -0.32205537 -0.39843636  4.10177057
O  0.61340005 -0.66544469  3.10806862
C 0.65812904 0.22646429 2.02910836
C -0.7741254   0.48440534  1.42464106
O -0.54596024  1.06973221  0.18565093
C -1.70130652  1.40160874 -0.58276859
C -1.24415811  2.027441   -1.88876865
O -0.79210095  1.05515535 -2.80447562
C  0.54735064  0.58296276 -2.63048622
C  0.55685567 -0.89488581 -2.07028552
O  1.86338068 -1.2627266  -1.94681857
C  2.05367901 -2.48769405 -1.24500517
H -1.34262555 -0.64427485  3.75041459
H -0.0443715  -0.96880952  5.00718309
H -0.35253054  0.64978464  4.44279451
H  1.15296316 -0.40198438  1.28148752
H 1.24400059 1.14978456 2.23857774
H -1.20850326  1.29085607  2.05214289
H -1.35774246 -0.44455675  1.41690091
H -2.47162672  1.94164861  0.02131713
H -2.22959583  0.50135069 -0.75531011
H -2.07364486  2.52049329 -2.50105062
H -0.38377561  2.71743225 -1.76578236
H  0.95165825  0.59341824 -3.73271545
H  1.08381518  1.27767792 -1.96274146
H  0.05900943 -0.82243327 -0.99281809
H -0.02880328 -1.53618938 -2.69791765
H  1.64833201 -3.42163676 -1.82772721
H  3.04812072 -2.72717913 -1.22901922
H  1.68227463 -2.37482842 -0.19448926
