30

C  1.47970028 -0.1766315   2.81246569
O  0.38679985 -0.14168158  1.84263657
C -0.8836213   0.24762929  2.35267733
C -1.85068159  0.58626964  1.27055546
O -1.16755453  1.23743685  0.20272512
C -1.86065565  1.37700498 -1.05465331
C -0.82644204  1.88379321 -1.97966633
O -0.36470944  0.8628234  -2.90955065
C  0.80559313  0.17658497 -2.54303835
C  0.63508813 -0.7344575  -1.34535993
O  1.67069428 -1.65359164 -1.49818959
C  1.78882171 -2.61268512 -0.41437699
H  1.2430236  -0.92472945  3.57220014
H  2.362636   -0.49524263  2.22417532
H 1.58249532 0.79889187 3.3387301 
H -0.67236491  1.13754018  2.98679592
H -1.42683561 -0.52265973  2.93964896
H -2.6095735   1.21444684  1.56759362
H -2.36017241 -0.39449436  0.86270711
H -2.63349498  2.11013567 -0.92351785
H -2.20271781  0.34039401 -1.51531513
H -1.29080236  2.7079746  -2.57992071
H  0.03475417  2.33072343 -1.37842028
H  1.05914956 -0.55718158 -3.41163844
H  1.62670212  0.93228211 -2.33727545
H  0.8078255  -0.16584473 -0.35986484
H -0.28893566 -1.27454431 -1.33371068
H  0.8494078  -3.26688044 -0.40659471
H  2.66285783 -3.24679632 -0.46155937
H  1.86883021 -2.07414327  0.62914556
