30

C 0.52112148 0.45929004 4.12286028
O -0.5061289   0.53114461  3.251089  
C -0.51458271 -0.41954478  2.21523044
C -1.60507416 -0.16452074  1.21843461
O -1.01343602  0.59430442  0.1757541 
C -1.92646782  1.09662724 -0.77555164
C -1.20147082  2.03115488 -1.67683716
O -0.29859888  1.37221975 -2.63787577
C  0.88567483  0.91442824 -2.09024334
C  0.79204165 -0.6347645  -2.05695069
O  2.08756619 -1.06323724 -1.72107146
C  2.19493136 -2.47104448 -1.72747956
H 1.64543767 0.64678093 3.76120299
H 0.37212977 1.24411699 4.89130817
H  0.65904124 -0.46109191  4.72061194
H -0.64716469 -1.46330778  2.68764173
H  0.47971962 -0.45939254  1.76043405
H -2.49243816  0.3088218   1.55749139
H -1.86180328 -1.17883351  0.84051849
H -2.8542609   1.52684907 -0.40310495
H -2.24002795  0.23082623 -1.47493516
H -1.85810233  2.5214887  -2.31445935
H -0.61531438  2.86054855 -1.18984729
H  1.70744504  1.03845205 -2.78702106
H  1.11386314  1.37346657 -1.08891987
H  0.15281375 -0.99743326 -1.22667939
H  0.54549306 -0.98763711 -3.00302728
H  1.93460525 -2.93936089 -2.72948519
H  3.20100448 -2.74015415 -1.5327301 
H  1.52334379 -2.85781321 -0.9427955 
