30

C  0.54884696 -0.50021114  4.27241145
O -0.47936079 -0.48196858  3.19622269
C -0.0930089   0.10725111  2.03341426
C -1.37477761  0.43844595  1.25968227
O -0.88505169  1.07046528  0.05333665
C -1.88071337  1.2186498  -0.89851589
C -1.3530163   1.90837048 -2.18789805
O -0.54326582  1.11320464 -2.96239925
C  0.67387999  0.72764602 -2.35675404
C  0.62594759 -0.75612826 -1.98206624
O  1.96579637 -1.0793278  -1.60991166
C  2.19684704 -2.4655493  -1.19446359
H 0.8244863  0.42574702 4.71097529
H  0.06561146 -1.15327833  5.03836385
H  1.3166085  -1.16197332  3.95097186
H  0.53742344 -0.57178887  1.41063677
H 0.56314593 0.87250105 2.14132631
H -2.02488515  1.13629614  1.83682713
H -1.85132987 -0.43627426  1.02142665
H -2.86336081  1.73393027 -0.48361645
H -2.23670153  0.20696788 -1.24600188
H -2.15507884  2.35375897 -2.64392512
H -0.87257948  2.80542919 -1.75322053
H  1.48660932  0.88593587 -2.99976278
H  0.9144279   1.41330615 -1.47607736
H -0.01422121 -0.86234541 -1.19080386
H  0.25612064 -1.32595642 -2.88444002
H  2.00165752 -3.28829782 -1.88249518
H  3.18181128 -2.48644232 -0.98325419
H  1.66351563 -2.7172171  -0.22703725
