30

C 0.96010871 0.56716306 2.25278225
O -0.22176861  0.15512357  2.91441745
C -0.9700739  -0.84401784  2.38762482
C -1.78484549 -0.42513371  1.16558323
O -1.19675876  0.61859879  0.42951901
C -1.94439471  1.04312536 -0.71452823
C -1.08871299  2.06744931 -1.46014151
O -0.137594    1.52112476 -2.36577821
C  1.01808245  1.02761705 -1.7373409 
C  0.95706942 -0.51904347 -1.60429648
O  2.02341086 -0.90380331 -0.81357482
C  2.19221052 -2.27875736 -0.69182661
H 0.76965232 1.50876733 1.60386792
H 1.76946342 0.86475273 2.96332901
H  1.40091323 -0.20294155  1.68818442
H -1.80319049 -1.05689749  3.12098505
H -0.37050819 -1.75336955  2.15924748
H -2.76103413 -0.16078055  1.49981967
H -2.01287418 -1.35206088  0.52464917
H -2.88547361  1.45068006 -0.42919654
H -2.14724188  0.20570662 -1.31957212
H -1.69685657  2.66293623 -2.20327095
H -0.53728162  2.73367623 -0.68101156
H  1.87271616  1.37372305 -2.23628316
H  1.0020152   1.34556301 -0.75134606
H -0.01275042 -0.71668328 -1.25737818
H  1.00036321 -1.01806627 -2.62743706
H  2.29587593 -2.83709802 -1.66046824
H  3.0026112  -2.47213737  0.0263119 
H  1.38640382 -2.74503688 -0.21419981
