30

C  0.55271101 -0.73321831  4.15132823
O -0.46674481 -0.42024881  3.2564961 
C -0.12822786  0.22432795  2.03240992
C -1.35928844  0.39637459  1.21393597
O -1.00438893  1.10724473  0.05356312
C -1.98858377  1.21477565 -1.00111408
C -1.35475535  1.89750881 -2.19989421
O -0.52957195  1.08974962 -2.98719951
C  0.67773704  0.78102656 -2.44357265
C  0.69506991 -0.67785871 -1.93306275
O  1.9802444  -1.00428481 -1.51957654
C  2.109041   -2.27050243 -0.8794111 
H  1.52040799 -0.46990942  3.83064637
H  0.42342608 -0.2448092   5.14159924
H  0.47872081 -1.74037819  4.34452495
H  0.61418974 -0.32769311  1.55571736
H 0.30820568 1.1553409  2.21259192
H -2.16916331  0.96942938  1.71987883
H -1.76718048 -0.60498232  1.08201661
H -2.79271353  1.79171283 -0.54016771
H -2.30368408  0.12670048 -1.35670041
H -2.1094665   2.17997115 -2.9187667 
H -0.76726077  2.82018128 -1.91575712
H  1.45570212  0.87275259 -3.1852082 
H  0.91311712  1.33602158 -1.51568918
H -0.02768835 -0.75526733 -1.05437369
H  0.34974012 -1.36056341 -2.70450488
H  2.01643707 -2.99811835 -1.65248437
H  3.03472791 -2.36896731 -0.40476734
H  1.36850366 -2.40154088 -0.00365672
