30

C  1.17272579 -0.82586767  2.97089469
O  0.03238474 -0.62298898  2.16836204
C -0.51935175  0.64974161  2.24058305
C -1.6959105   0.83572039  1.24568145
O -1.11131518  1.3925772   0.04504803
C -1.99614579  1.29233356 -1.09165428
C -1.20235861  1.81529356 -2.29050253
O -0.35149736  0.83116019 -2.84456358
C  0.7933929   0.54351151 -2.04654379
C  0.63178418 -0.80067511 -1.3698845 
O  1.91133929 -1.33044803 -1.16567097
C  1.98977248 -2.54430645 -0.5203138 
H  0.99406901 -0.54809373  4.03363779
H  1.50673538 -1.78735219  2.87716225
H  1.94810121 -0.25310569  2.50794266
H 0.26213987 1.42894569 2.03708958
H -0.97781271  0.89671778  3.30626705
H -2.4250188   1.50222483  1.81482069
H -2.22800665 -0.1215383   0.99521585
H -2.86812012  1.90468875 -0.80316407
H -2.2867836   0.19806125 -1.18999903
H -1.91648148  2.16801124 -3.09876253
H -0.61299557  2.66872396 -1.99843283
H  1.583703    0.49632602 -2.77820592
H  0.93647639  1.28692429 -1.28915318
H  0.01363788 -0.76854702 -0.43117878
H -0.00871486 -1.40563098 -2.00297827
H  1.49840904 -3.44568208 -1.10682399
H  2.97314752 -2.75358698 -0.4703744 
H  1.44123014 -2.67682202  0.44366283
