30

C  0.06531497 -1.21536307  4.073512  
O -0.47248991 -0.09256054  3.34646106
C -0.64941144 -0.32296896  1.91670898
C -1.03385863  0.95840099  1.33505113
O -1.37988308  0.67192702 -0.03093618
C -1.75297815  1.78892238 -0.87766591
C -1.8388517   1.34413452 -2.23398619
O -1.0219898   0.27742576 -2.61420277
C  0.42702205  0.4921443  -2.49566649
C  0.99750445 -0.75520017 -1.87324952
O  2.42657227 -0.55414097 -1.66511403
C  3.04786598 -1.48157719 -0.89572717
H  1.05237701 -1.42167016  3.71377427
H  0.16985886 -1.03663938  5.19626623
H -0.58633818 -2.13938983  3.92586062
H -1.40493836 -1.01720829  1.71923926
H  0.22899108 -0.77912333  1.46958291
H -0.27053207  1.74560623  1.33776146
H -1.9118384   1.4823638   1.87450208
H -1.07929997  2.6726011  -0.76406657
H -2.73706947  2.10807257 -0.59732264
H -2.9328316   1.0305895  -2.39132458
H -1.57258409  2.14489005 -2.92297624
H  0.8316377   0.60556608 -3.52230624
H  0.67914931  1.40858034 -1.89013787
H  0.45035287 -0.92678333 -0.90290246
H  0.95262812 -1.62689478 -2.55407464
H  3.10937137 -2.46587606 -1.464827  
H  4.06559443 -1.03394741 -0.68308233
H  2.49881116 -1.65473707  0.01280189
