30

C 0.44454333 0.50703954 4.20215065
O -0.57708033  0.46152286  3.29016353
C -0.38878019 -0.45621991  2.19787382
C -1.4826034  -0.20595867  1.174375  
O -0.97801438  0.7134873   0.21801487
C -1.8607612   1.13360517 -0.72300226
C -1.21534847  2.03829461 -1.78571705
O -0.36241816  1.43382556 -2.6649038 
C  0.86517106  0.91448472 -2.11706415
C  0.78488913 -0.67006455 -2.16860189
O  2.02488114 -1.12748206 -1.71734612
C  2.24932615 -2.569615   -1.6706063 
H 1.39595868 0.79803169 3.93261189
H 0.23307972 1.20548279 5.02886953
H  0.58645121 -0.55700113  4.65780245
H -0.43624724 -1.49721455  2.66368486
H  0.50312435 -0.28370141  1.76280349
H -2.44891437  0.13829426  1.65547413
H -1.69118269 -1.18242515  0.58458193
H -2.70567035  1.70238223 -0.23852003
H -2.40113838  0.36293173 -1.23910839
H -2.06714279  2.56156426 -2.43930639
H -0.8289595   2.72888437 -1.00185373
H  1.58742946  1.11671248 -2.90014964
H  0.98017719  1.35984593 -1.08131023
H -0.03874067 -0.90148764 -1.39806554
H  0.52617497 -0.91102503 -3.18813285
H  2.00894471 -2.93245547 -2.76242767
H  3.21068648 -2.6898166  -1.27960728
H  1.66716696 -3.0525626  -0.88566856
