30

C  0.54418691 -0.81095179  3.9806612 
O -0.52389065 -0.51574452  3.17002104
C -0.11107203  0.27679936  2.04983519
C -1.37695951  0.54040224  1.29874884
O -1.0599573   1.20688932  0.05200331
C -2.02802371  1.28865783 -0.97495895
C -1.43115356  1.92388053 -2.20998653
O -0.57083526  1.05374012 -2.92890607
C  0.70822098  0.7091009  -2.39792227
C  0.67229728 -0.72372373 -1.86292061
O  2.05105055 -0.98605123 -1.45349377
C  2.32036247 -2.25506899 -0.8747586 
H  1.48561267 -1.09290207  3.4341599 
H 0.74988062 0.09717727 4.60135605
H  0.21787009 -1.61154814  4.63298216
H  0.6065593  -0.33500785  1.41529794
H 0.44761874 1.16477428 2.31108624
H -2.19855757  1.05696713  1.86152404
H -1.81356604 -0.47595815  1.15560982
H -2.91681675  1.85741753 -0.6308522 
H -2.26914623  0.20101763 -1.22082559
H -2.25068389  2.23405428 -2.97212738
H -1.07944505  2.91185572 -1.87212261
H  1.35734849  0.91195322 -3.27056592
H  0.92968098  1.39662325 -1.6127532 
H  0.05992418 -0.82302258 -1.02541374
H  0.39274696 -1.38492171 -2.55989006
H  2.01711897 -2.97711943 -1.57752613
H  3.32551001 -2.28423962 -0.74369239
H  1.80443669 -2.41766217  0.08422806
