30

C -0.99612071  0.49977557  5.7326562 
O -1.20866275 -0.01358186  4.45451275
C -0.78257109  0.81417268  3.36402245
C -1.25483173  0.11371413  2.01068921
O -0.72806259  0.97105614  0.9543862 
C -0.95146791  0.52445394 -0.36108215
C -0.28111824  1.49704841 -1.26590272
O -0.52562839  1.06294252 -2.64409441
C  0.49545368  0.60415161 -3.37856351
C  0.86937238 -0.83785976 -3.07511076
O  1.88063378 -1.2632851  -3.89879988
C  2.42864527 -2.52294545 -3.71096633
H -1.32847214  1.61799121  5.68777352
H -1.4261004  -0.1046697   6.43016202
H 0.0937207  0.59809554 5.90011941
H 0.27943182 0.99117856 3.39693011
H -1.30853813  1.88300599  3.34008311
H -2.29835748 -0.06086807  1.98667073
H -0.74856354 -0.85825987  1.96202236
H -1.96208438  0.29936369 -0.52242307
H -0.43411733 -0.47014582 -0.46514024
H -0.61682464  2.48696034 -1.11180662
H  0.82640692  1.4764489  -0.99092498
H  0.40223084  0.79561178 -4.33870741
H  1.39270025  1.25800255 -3.11048009
H  0.97317277 -0.87208536 -2.08311833
H -0.07565083 -1.44061486 -3.24876014
H  1.68639073 -3.29964995 -4.06090539
H  3.22922065 -2.64515773 -4.40676714
H  2.78210251 -2.8121349  -2.63198907
