30

C -1.08099846  0.56093458  5.66149383
O -1.24635879  0.0499362   4.37078333
C -0.83356571  0.89187106  3.35991938
C -1.08262781  0.09419437  2.08111253
O -0.65208567  0.95147858  1.02279685
C -0.74992552  0.42144321 -0.25728341
C -0.30569687  1.46226739 -1.24422971
O -0.53119489  1.10682991 -2.5720334 
C  0.61224017  0.59904521 -3.27383846
C  0.91320035 -0.86375064 -2.97306143
O  1.79354419 -1.22529748 -3.96580529
C  2.2623143  -2.53583708 -3.88293369
H -1.60939728  1.39082742  5.71489752
H -1.4482972  -0.25106033  6.278725  
H -0.02868077  0.55218124  5.90423524
H 0.31813933 1.04977473 3.38253858
H -1.36839043  1.79826454  3.28092946
H -2.11470934 -0.25935055  1.87116015
H -0.4641242  -0.82328189  2.0435825 
H -1.86243508  0.20817482 -0.35856383
H -0.26104971 -0.61633709 -0.3704767 
H -0.83999944  2.34623425 -1.02967261
H  0.70960527  1.71572981 -1.0618744 
H  0.42196809  0.6334078  -4.29905548
H  1.36441283  1.24104636 -2.99955459
H  1.44649196 -1.08103156 -2.07334093
H -0.09853607 -1.35866443 -3.18994981
H  1.42613023 -3.3102587  -4.08856959
H  2.87655856 -2.94065285 -4.63098253
H  2.79883075 -2.64632142 -2.83750157
