30

C  0.96809273 -0.98009667  3.6023158 
O -0.16626881 -0.62741821  2.81896549
C -0.02085907  0.43260407  1.8738324 
C -1.31885197  0.46917183  1.10643759
O -1.12529823  1.31599969  0.04872276
C -2.07056054  1.32772584 -0.99860933
C -1.33574195  1.95533721 -2.26911937
O -0.48053446  1.03530343 -2.95386426
C  0.73910608  0.63930446 -2.36330499
C  0.62844193 -0.7616008  -1.7423376 
O  1.65459443 -0.87891191 -0.87278356
C  1.66969084 -2.16353108 -0.24414655
H  1.28964371 -0.17395246  4.29766098
H  0.82199585 -1.79275942  4.2241948 
H  1.75517789 -1.25960216  3.02975715
H 0.7054817  0.39446758 1.11219253
H 0.06699365 1.42766449 2.45414682
H -2.16026529  0.73581441  1.78253947
H -1.48653201 -0.53374233  0.87581971
H -2.86111647  1.87555109 -0.61206531
H -2.52168196  0.37846778 -1.16616485
H -2.06875322  2.1285346  -2.91630365
H -0.79063934  2.9409639  -2.01191593
H  1.53286959  0.62419907 -3.14464652
H  1.15966078  1.2152017  -1.55706498
H -0.38532007 -0.79666012 -1.20012251
H  0.64665056 -1.68099034 -2.39787837
H  2.0055729  -2.93046363 -0.97641184
H  2.56350813 -2.2537318   0.53728525
H  0.75132817 -2.49089181  0.1712976 
