30

C  0.53614813 -0.57920269  4.19187156
O -0.5094738  -0.35029997  3.27641106
C -0.06557499  0.19740376  2.03000325
C -1.39718058  0.44273584  1.25297429
O -1.02088199  1.11368285  0.05848322
C -1.95699357  1.29312113 -0.93766087
C -1.34820786  1.93155613 -2.17809326
O -0.50332788  1.05847122 -2.96393587
C  0.66934267  0.73915288 -2.44992885
C  0.63458161 -0.737146   -1.95446519
O  2.00580193 -1.0640519  -1.62346065
C  2.16827673 -2.33268095 -0.87119166
H 1.12376572 0.30251409 4.4907532 
H  0.15894941 -0.89461399  5.1734165 
H  1.12517485 -1.35965217  3.7545915 
H  0.53293751 -0.57702302  1.55120829
H 0.68362245 1.0989584  2.18124733
H -2.04251747  0.91260727  1.87861119
H -1.9390015  -0.43778814  0.85802103
H -2.80261188  1.98101423 -0.66445472
H -2.41765634  0.29924955 -1.23016114
H -2.1269208   2.15937552 -2.71504777
H -0.72277451  2.83781981 -1.69483039
H  1.44043405  0.75337665 -3.2693575 
H  0.85168052  1.43968258 -1.6888903 
H -0.1833268  -0.82667493 -1.17512148
H  0.41193823 -1.35895282 -2.80281337
H  1.69438498 -3.26278412 -1.37594461
H  3.26388475 -2.4461207  -0.89128015
H  1.67868094 -2.3306746   0.12462475
