30

C  1.28753756 -0.50242829  2.91750519
O  0.14797748 -0.44685896  2.0855939 
C -0.7970364   0.51719059  2.46613245
C -1.77697507  0.65910812  1.30982448
O -1.15024152  1.25462604  0.1910189 
C -1.89549668  1.33128713 -1.04813024
C -0.99706237  1.88355972 -2.13039391
O -0.36866616  0.889475   -2.91804963
C  0.87235957  0.35805091 -2.4616235 
C  0.67586011 -0.75118232 -1.43086045
O  1.87482275 -1.5395406  -1.40838399
C  1.85090761 -2.60688587 -0.53417645
H  0.95059697 -0.53518461  4.0108438 
H  1.8594531  -1.39849319  2.68970536
H 1.93574827 0.49952417 2.84814694
H -0.28301765  1.51554537  2.68412475
H -1.38778498  0.29589245  3.34935017
H -2.69636216  1.28523618  1.62761928
H -2.03517428 -0.40143001  0.93323235
H -2.80538382  1.82848264 -0.7894162 
H -2.17813191  0.35281446 -1.31715065
H -1.67262194  2.41646669 -2.799577  
H -0.27217512  2.53840591 -1.66487249
H  1.44352017  0.01666198 -3.31265505
H  1.45800376  1.07696615 -2.0124055 
H  0.50868663 -0.35000707 -0.36910979
H -0.14099922 -1.49259896 -1.74237036
H  1.06150854 -3.42489527 -0.80440548
H  2.8771805  -3.09808569 -0.67976017
H  1.74593902 -2.25508702  0.58088048
