30

C -0.0755898  -0.09529698  4.3935732 
O  0.06502979 -0.76717782  3.16731219
C  0.28553198 -0.06311695  2.01456889
C -1.01832768  0.26340695  1.36108495
O -0.75962311  0.93961069  0.17479626
C -1.79570685  1.19221659 -0.67629223
C -1.2680582   2.01044679 -1.87230933
O -0.5872174   1.1992514  -2.80616613
C  0.69913905  0.68180875 -2.54721162
C  0.60512263 -0.82947427 -2.14908629
O  1.95465231 -1.23150303 -2.02792191
C  2.13686002 -2.51000906 -1.42822564
H -0.91360544  0.62920605  4.34376085
H -0.07195049 -0.76966524  5.19471435
H 0.86804118 0.52725298 4.59321744
H  0.89561429 -0.72013188  1.34436733
H 0.88864713 0.80142036 2.20706313
H -1.68303211  1.00197007  1.98546556
H -1.49164809 -0.71043141  1.21173984
H -2.64078978  1.87199552 -0.18220144
H -2.28119103  0.30859252 -0.99384814
H -2.0376131   2.51480419 -2.45967753
H -0.7132832   2.69187649 -1.42051657
H  1.33645085  0.69612484 -3.4080284 
H  1.19400884  1.28878958 -1.75448448
H  0.12534096 -0.91822521 -1.1729377 
H  0.02166136 -1.29634866 -2.98170429
H  1.64071408 -3.35578852 -1.97699747
H  3.20284596 -2.65827804 -1.37089638
H  1.56438537 -2.50589738 -0.46033178
