30

C  0.64915557 -0.74305674  4.04590464
O -0.50809488 -0.35649121  3.27842431
C -0.12152946  0.27782227  1.97517585
C -1.43032112  0.48058144  1.25315201
O -1.01643642  1.12579254  0.06137388
C -1.98525622  1.22003473 -0.98505668
C -1.39535309  1.92052529 -2.19938208
O -0.48344263  1.08570187 -2.94105253
C  0.74925655  0.69357668 -2.49063868
C  0.6470224  -0.7028723  -1.87099395
O  1.97159184 -1.03712966 -1.48291615
C  2.1188977  -2.30911313 -0.8599464 
H 1.4175838  0.00826327 4.16858555
H  0.37070348 -0.96507219  5.13499984
H  1.22016008 -1.5563026   3.6040856 
H  0.52289815 -0.48096736  1.44692634
H 0.36319913 1.27540199 2.20135271
H -2.10377331  1.11689091  1.81298245
H -1.94066772 -0.45551147  1.11881262
H -2.87517158  1.84621393 -0.66450526
H -2.25068637  0.23669899 -1.23272384
H -2.19679304  2.28795026 -2.84621422
H -0.83924939  2.71686742 -1.81099225
H  1.48443627  0.73643935 -3.33087826
H  1.12915592  1.47074747 -1.77018611
H  0.02173444 -0.80768166 -1.10458554
H  0.37583809 -1.4130536  -2.5861731 
H  1.6269678  -3.12463601 -1.50272509
H  3.19475853 -2.57481228 -0.68398372
H  1.52181184 -2.3382003   0.05472116
