30

C  1.18166641 -0.77511252  2.90209439
O -0.02609428 -0.57880154  2.13708221
C -0.57035866  0.65911696  2.29859483
C -1.71089111  0.89234714  1.29435686
O -1.15563542  1.32648567  0.13341206
C -1.94712465  1.31306107 -1.02948618
C -1.17157765  1.85718905 -2.28764264
O -0.31722991  0.85957148 -2.84356543
C  0.81328573  0.43487021 -2.1571987 
C  0.62495498 -0.86090877 -1.42023937
O  1.87743249 -1.33293716 -1.15501922
C  2.08617084 -2.58685293 -0.54027646
H  0.9480627  -0.73416266  3.920419  
H  1.63547242 -1.6850947   2.66363947
H 1.84628569 0.0421042  2.79384652
H 0.17885772 1.52103087 2.08404178
H -0.91888343  0.82016017  3.35813151
H -2.57911729  1.61296664  1.65575442
H -2.10802567 -0.15573735  1.10887099
H -2.89073992  1.91166613 -0.84476711
H -2.2335723   0.25998734 -1.18689253
H -1.91720038  2.09257126 -3.02583897
H -0.59525141  2.65588405 -1.90458592
H  1.59322596  0.21708391 -2.9884593 
H  1.24461455  1.15926674 -1.42604628
H  0.04751772 -0.5665313  -0.49316997
H  0.03068922 -1.57381777 -2.03880265
H  1.58532702 -3.40059601 -1.12196519
H  3.12927135 -2.82859581 -0.39071288
H  1.5742346  -2.62061947  0.46455875
