30

C -1.55513091  0.54565282  5.64248449
O -1.14020234  0.01552947  4.45561839
C -1.05069776  0.94435357  3.42603342
C -0.52468513  0.12130406  2.20483884
O -0.46991088  0.97512309  1.10744182
C -0.02056121  0.45740716 -0.1366253 
C  0.01065428  1.60805183 -1.14232925
O -0.42996774  1.18134156 -2.41992604
C  0.47938031  0.57793481 -3.33136083
C  0.68462474 -0.91746327 -3.05198613
O  1.56342187 -1.31585292 -4.08455117
C  1.84545599 -2.66125495 -4.17499552
H -2.5713755   0.98103061  5.57050352
H -1.53759141 -0.38709439  6.34756436
H -0.87275211  1.35927639  6.02506979
H -0.34657184  1.7939641   3.73733169
H -2.02851296  1.4519806   3.249435  
H -1.26340563 -0.78478053  2.03814289
H  0.42904553 -0.2437159   2.41507172
H -0.7309935  -0.40244734 -0.47975101
H 0.99479329 0.11357503 0.0448282 
H -0.70722813  2.39122081 -0.8384632 
H  1.03223334  2.12842096 -1.32369856
H  0.04062618  0.71721209 -4.34821422
H  1.52928281  0.98640499 -3.19257737
H  1.02701366 -1.32845624 -2.04295814
H -0.28294361 -1.51928299 -3.32199904
H  0.96047853 -3.20380311 -4.39216976
H  2.67762039 -2.77629221 -4.92888762
H  2.22450766 -3.01091434 -3.24111035
