30

C -0.23674117 -0.16399776  5.10262595
O -0.96452127 -0.28000898  3.88685535
C -0.48370293  0.49437512  2.83431572
C -1.42557159  0.31240395  1.61864306
O -0.90614683  1.02270808  0.60320249
C -1.57771579  0.89963743 -0.67525848
C -0.77800673  1.80743222 -1.70535309
O -0.70168986  1.18449486 -2.98281791
C  0.50676185  0.52346396 -3.31633764
C  0.83863223 -0.66877836 -2.48850118
O  1.98557404 -1.27270031 -3.01117928
C  2.51375184 -2.44310715 -2.34901722
H -0.27739641  0.81683228  5.64292682
H -0.65357957 -0.94375937  5.86295177
H  0.79610987 -0.3910405   4.9748831 
H 0.56717569 0.25311032 2.570033  
H -0.47424706  1.65361052  3.10169402
H -2.44083138  0.72603573  1.90774876
H -1.5057768  -0.852249    1.46769274
H -2.58869801  1.2227986  -0.66050115
H -1.57741326 -0.07788639 -1.06010785
H -1.35367376  2.66979917 -1.78678661
H  0.22217198  2.02873432 -1.18689213
H  0.5287623   0.33662055 -4.35683323
H  1.33767805  1.30935583 -3.1254034 
H  0.9573358  -0.41078448 -1.48123175
H -0.06000951 -1.29151559 -2.53403603
H  1.74652955 -3.24201369 -2.2889932 
H  3.44685096 -2.73595992 -2.87962814
H  2.64779377 -2.20559777 -1.2875722 
