30

C 0.49375712 0.19321591 4.34343613
O -0.59596232  0.2257153   3.46463777
C -0.35687279 -0.27998998  2.14928532
C -1.54458969  0.06188243  1.21448919
O -0.97313916  0.81825128  0.1588685 
C -1.94734797  1.14495074 -0.8336751 
C -1.21231695  2.01151849 -1.82248485
O -0.40933059  1.29319483 -2.77854515
C  0.83223504  0.82796032 -2.35484846
C  0.729185   -0.68325647 -2.14247068
O  2.04259258 -1.08564093 -1.77594878
C  2.24381443 -2.46581233 -1.48317884
H 1.43329774 0.50695928 3.92473094
H 0.16574433 0.66432064 5.33065514
H  0.71925863 -0.87050362  4.5479502 
H -0.12981138 -1.34409452  2.13821526
H 0.52366988 0.26140994 1.7565623 
H -2.23395125  0.6332758   1.77951906
H -1.98561138 -0.85999443  0.87195445
H -2.7880664   1.69850914 -0.46471116
H -2.40048248  0.27489392 -1.42881211
H -1.95524137  2.6064227  -2.30924195
H -0.58075405  2.68392212 -1.2833044 
H  1.65459306  1.10965017 -3.01202994
H  1.06524448  1.29735425 -1.41147269
H -0.0835451  -0.96731523 -1.3494374 
H  0.45872262 -1.13036133 -3.01390149
H  2.02163161 -3.05268304 -2.36625794
H  3.38011148 -2.68253346 -1.18314239
H  1.69595035 -2.78931353 -0.62594942
