30

C  0.02021422 -0.43718354  4.76494114
O -0.79819688 -0.43139665  3.61887512
C -0.33775574  0.35740716  2.52660064
C -1.39081536  0.27046646  1.45603702
O -0.88395549  1.06258559  0.37076013
C -1.71077297  1.10368675 -0.82494717
C -0.95145382  1.85520254 -1.89618256
O -0.73752856  1.13545744 -3.10646667
C  0.50184907  0.48558663 -3.20506622
C  0.72189164 -0.5530029  -2.13691524
O  2.00007817 -1.13446399 -2.47474318
C  2.31151861 -2.31697652 -1.71981604
H 0.20636977 0.62172192 5.10481838
H -0.48542629 -1.10142544  5.5174332 
H  1.08280441 -0.82473879  4.63879217
H  0.56713557 -0.12791366  2.31175826
H -0.11805367  1.31799607  2.84251838
H -2.39109799  0.51193621  1.77088316
H -1.47075324 -0.81856028  1.18428939
H -2.58770754  1.5696412  -0.56650995
H -1.91156736  0.07843483 -1.09977336
H -1.32721974  2.86242392 -2.1985441 
H  0.04204879  2.14313734 -1.52413636
H  0.52106829  0.072773   -4.22512243
H  1.23118691  1.30587579 -3.20112371
H  0.7406125  -0.24922088 -1.1245614 
H -0.12860644 -1.20563949 -2.24041123
H  1.57264668 -3.14283221 -1.84016271
H  3.30546172 -2.67022955 -1.97805466
H  2.39069269 -1.96965271 -0.71863492
