30

C -1.292039    0.65208813  5.69979665
O -1.20000384 -0.02060376  4.44555662
C -1.00972239  0.88831885  3.37661965
C -0.82691903  0.03429861  2.16811079
O -0.54838338  0.98594898  1.07801081
C -0.51147542  0.3678538  -0.18622386
C -0.12278209  1.51199843 -1.17648792
O -0.46174687  1.13761326 -2.48694748
C  0.52439723  0.62391559 -3.36067838
C  0.78958099 -0.82525415 -3.10842123
O  1.70622018 -1.28818708 -4.09199845
C  2.18953127 -2.61175871 -3.99955204
H -2.12004058  1.40205003  5.64472261
H -1.55492267  0.0384392   6.52757391
H -0.42233439  1.24533883  5.90171558
H -0.08603145  1.45560977  3.50166818
H -1.85195201  1.62147675  3.45232956
H -1.75272669 -0.50952125  1.90484325
H -0.08712228 -0.64414688  2.30052345
H -1.50461395 -0.01387859 -0.26508288
H  0.13527605 -0.54682287 -0.2530176 
H -0.708229    2.41977767 -0.84338997
H  0.9372628   1.65172352 -1.07178691
H  0.08477078  0.75806396 -4.45600337
H  1.47830871  1.24671234 -3.18089375
H  1.32349876 -0.98529007 -2.09999779
H -0.10009038 -1.45492306 -3.08752276
H  1.3698664  -3.34461529 -4.18366418
H  2.98568454 -2.70181857 -4.68953413
H  2.66708842 -2.8791029  -3.05582887
