30

C  0.26762784 -0.73224064  4.39577361
O -0.71581916 -0.4466525   3.45406671
C -0.26568948  0.2569026   2.29950192
C -1.41470312  0.41305784  1.33595339
O -0.99687636  1.11290381  0.21052602
C -1.80655722  1.13106458 -0.88033753
C -1.11999859  1.93002444 -2.03035174
O -0.72755619  1.02676126 -3.0924205 
C  0.5743102   0.48554297 -3.05648941
C  0.71520791 -0.55769872 -1.9426599 
O  1.98292924 -1.12640229 -2.14987775
C  2.30423977 -2.21785749 -1.17509786
H 0.59151349 0.2956007  4.60954558
H -0.2169462  -1.18226478  5.1910713 
H  1.07230194 -1.33916598  3.92511129
H  0.5181202  -0.30264181  1.76611698
H 0.20935753 1.23519932 2.55340259
H -2.13009813  1.02020126  1.86084293
H -1.74613811 -0.5496827   1.01416249
H -2.68573188  1.67648332 -0.59885575
H -2.03091024  0.0998278  -1.27283548
H -1.8130437   2.59707751 -2.43957007
H -0.24992271  2.39731611 -1.60782834
H  0.89190066  0.05528183 -4.00736351
H  1.28240582  1.36414632 -2.79265709
H  0.73982048 -0.18486827 -0.8984231 
H -0.10672689 -1.34038599 -2.0320399 
H  1.63760572 -3.03888979 -1.31197556
H  3.41030628 -2.42957469 -1.5197819 
H  2.25053861 -1.89655228 -0.12092941
