30

C  0.2489408  -0.75172879  4.33336189
O -0.6897631  -0.45768217  3.35911801
C -0.25535653  0.20262619  2.26026836
C -1.4454679   0.49258375  1.37214581
O -0.93012352  1.1544838   0.21362985
C -1.86825543  1.2042906  -0.88296543
C -1.11435453  1.91772491 -2.04287601
O -0.77104235  0.97831015 -3.10044653
C  0.54918676  0.44821981 -2.98181626
C  0.71918486 -0.60110293 -1.89939244
O  2.02509069 -1.15228758 -2.09314893
C  2.34060344 -2.14045322 -1.12951909
H 0.74071282 0.11941542 4.80918116
H -0.23600056 -1.36665231  5.07926564
H  1.04525346 -1.43928525  4.02983589
H  0.57379758 -0.41571964  1.75964183
H 0.15197866 1.19660087 2.44714974
H -2.33316799  0.94716946  1.96302623
H -1.91767844 -0.46339835  1.09435784
H -2.82022386  1.83841344 -0.76963119
H -1.99475181  0.16142095 -1.22030257
H -1.90292078  2.58607556 -2.44017509
H -0.07106996  2.41277597 -1.74187737
H  7.25598116e-01  1.55986600e-03 -3.98996886e+00
H  1.21303605  1.31610076 -2.96413291
H  0.74398153 -0.15984745 -0.87667961
H -0.08234715 -1.45557447 -1.84510269
H  1.57694759 -3.0084002  -1.32378107
H  3.41045003 -2.39602654 -1.50935092
H  2.63049327 -1.59569546 -0.22150631
