30

C 0.96576675 0.55616084 2.21228039
O -0.18123065  0.18843751  2.90025969
C -1.01211354 -0.82592538  2.394365  
C -1.87822449 -0.38795461  1.17696657
O -1.28192646  0.61894892  0.42139465
C -1.99452209  1.04336428 -0.75038797
C -1.11941491  2.08294923 -1.42886411
O -0.13328797  1.49246165 -2.28920149
C  1.02108961  1.0114811  -1.72373809
C  0.97773455 -0.50415178 -1.54772009
O  2.16688248 -0.88888154 -0.90904092
C  2.29650314 -2.29273025 -0.61016751
H 0.77612242 1.27277835 1.32428679
H 1.61600278 1.05470207 2.84164017
H  1.40517743 -0.47371046  1.83123496
H -1.73383084 -1.02398511  3.20651907
H -0.51932034 -1.7425292   2.1328896 
H -2.88847627 -0.10251754  1.5767024 
H -1.97682669 -1.28158911  0.67046653
H -3.00256396  1.60919795 -0.5067143 
H -2.24823275  0.16653314 -1.41261212
H -1.68954212  2.63278005 -2.12310058
H -0.60786016  2.68327245 -0.78512907
H  1.826789    1.26444066 -2.34696086
H  1.23482747  1.51086018 -0.71382668
H  0.18785658 -0.84193332 -0.95927402
H  0.96549408 -0.97368416 -2.58364496
H  2.37642627 -2.84744249 -1.54717219
H  3.12716364 -2.4588868  -0.01481295
H  1.33630684 -2.64013047 -0.16301033
