30

C  1.11083091 -0.77313599  3.08217555
O  0.07864699 -0.57981465  2.17615176
C -0.52186393  0.71579502  2.27021303
C -1.67689242  0.83305915  1.25183144
O -1.21088402  1.37466128  0.0944859 
C -2.01422607  1.27844762 -1.0515908 
C -1.19862846  1.80695208 -2.24804271
O -0.33500442  0.93081727 -2.90624442
C  0.81403793  0.49771099 -2.15344735
C  0.64988337 -0.83642967 -1.39099284
O  1.94951764 -1.35974968 -1.22981568
C  1.98991449 -2.63415165 -0.55856117
H  0.72752791 -0.85939938  4.13085648
H  1.55317972 -1.82467954  2.82662655
H  2.00544316 -0.15100704  2.87988555
H 0.24844498 1.46554126 2.22595529
H -0.989958    0.83076063  3.22606442
H -2.49348916  1.42501801  1.51890676
H -2.1507497  -0.10900376  1.01004494
H -3.00212482  1.79932169 -0.78965733
H -2.29012517  0.18449761 -1.29173127
H -1.83759905  2.0560122  -3.00909948
H -0.56870956  2.72597367 -1.93466608
H  1.72920919  0.20822859 -2.86538916
H  1.21645666  1.43319607 -1.59043418
H  0.28695993 -0.6711931  -0.25464782
H  0.08154763 -1.59077485 -1.78646346
H  1.37658656 -3.45082754 -1.03634454
H  3.00692786 -2.84057393 -0.55038291
H  1.62617381 -2.68564822  0.48236386
