30

C -1.28999086  0.65725966  5.7793257 
O -1.28319048  0.05605718  4.4818708 
C -0.86988965  0.93562773  3.4004737 
C -0.92127255  0.11425913  2.14821212
O -0.58626535  0.93307798  1.12329972
C -0.61194892  0.37763437 -0.1403526 
C -0.215509    1.46793769 -1.16266576
O -0.48222572  1.06170146 -2.5047473 
C  0.55149383  0.60472557 -3.32283625
C  0.82771732 -0.89675356 -3.1867938 
O  1.8445165  -1.21836214 -4.10840023
C  2.20348461 -2.6194245  -4.12816284
H -2.02762423  1.38248624  5.76392928
H -1.44574474 -0.1249818   6.50789654
H -0.30566648  0.98851987  6.016276  
H 0.1869134  1.32606034 3.57470332
H -1.56965714  1.73611369  3.2100579 
H -1.88103255 -0.35437929  2.02292162
H -0.22866111 -0.72585937  2.05038736
H -1.69375447 -0.03387184 -0.43233979
H  0.16642208 -0.40280546 -0.21590966
H -0.85056147  2.33139782 -0.85843212
H  0.8108074   1.85365701 -1.04349061
H  0.36427265  0.76365225 -4.29082499
H  1.47053908  1.14751949 -3.05455405
H  1.24964104 -1.06975455 -2.17230655
H -0.04036409 -1.42947333 -3.40735058
H  1.4115397  -3.26913227 -4.46766546
H  3.0386504  -2.8043061  -4.80634677
H  2.48536273 -2.90286777 -3.08006476
