30

C  1.01746951 -1.11372786  3.39920133
O -0.0843362  -0.82457441  2.5258557 
C -0.01290203  0.45420971  1.94762049
C -1.38983583  0.64741122  1.21396518
O -1.12157479  1.43716471  0.04615815
C -1.9659756   1.30492574 -1.04677514
C -1.37185439  1.8587698  -2.24977554
O -0.54537644  0.94739625 -2.97760894
C  0.71631515  0.58917199 -2.35612159
C  0.66318882 -0.79400499 -1.75177902
O  1.76340631 -0.92246938 -0.91473947
C  1.68605269 -2.06799785 -0.08493462
H  0.98800949 -0.3891053   4.1709942 
H  0.84502289 -2.16737567  3.72681806
H  1.93127307 -0.9614004   2.85667006
H 0.91358354 0.73833573 1.26529232
H 0.0278813  1.26435886 2.70139022
H -2.1202993   1.14641799  1.83799385
H -1.72461056 -0.35862333  0.9143747 
H -2.88892129  1.79289633 -0.77875105
H -2.26613778  0.26817639 -1.1499936 
H -2.07556422  2.30744161 -2.97116713
H -0.71953184  2.78340023 -2.08790425
H  1.46023736  0.71588657 -3.09980264
H  1.08471413  1.34805582 -1.5825499 
H -0.33300208 -0.84080914 -1.24964745
H  0.65570325 -1.60514692 -2.58828836
H  1.60811486 -3.03055307 -0.67256959
H  2.55517002 -2.07582821  0.50240257
H  0.7092503  -2.06807075  0.39224504
