30

C  0.10588981 -1.07940858  4.0901007 
O -0.55073758 -0.09510847  3.33585081
C -0.51656594 -0.2883361   1.94915986
C -1.1417351   0.94522069  1.33430157
O -1.20582978  0.74713481 -0.05721719
C -1.87197725  1.75053146 -0.83133348
C -1.75997439  1.41470703 -2.36343882
O -0.91887723  0.34497069 -2.65710319
C  0.41717681  0.51053122 -2.41891279
C  0.94833304 -0.83050772 -1.85259144
O  2.2863723  -0.5730005  -1.49314521
C  2.95499091 -1.72504707 -0.97394556
H  1.21584551 -1.16005007  3.98857743
H  0.0175064  -0.94241206  5.1545952 
H -0.36984435 -2.11396575  3.84765127
H -0.96588085 -1.18602838  1.67380847
H  0.58069667 -0.28559769  1.54877528
H -0.61499942  1.84639953  1.52940624
H -2.10134423  1.01154995  1.69162247
H -1.34712135  2.69829597 -0.75536305
H -3.01838161  1.8918139  -0.52665821
H -2.79162806  1.07400671 -2.72304023
H -1.53130566  2.42053362 -2.76754138
H  0.92647172  0.71077552 -3.38033145
H  0.73602005  1.32718716 -1.69099881
H  0.24178366 -1.02345624 -0.93334302
H  0.87433059 -1.70894349 -2.61976463
H  2.87523658 -2.55553705 -1.69548213
H  3.97262133 -1.4584291  -0.81559625
H  2.51239419 -2.04806352 -0.02447927
