30

C -0.44514381 -1.39607521  4.24951327
O -0.54439049 -0.22203839  3.53400286
C -0.91877834 -0.48984755  2.20001851
C -0.96975631  0.81812267  1.43136674
O -1.45860858  0.57960176  0.15146221
C -1.32171258  1.65611687 -0.78018951
C -1.8211048   1.25214632 -2.07342051
O -1.12036844  0.13487422 -2.6404929 
C  0.22465294  0.24299052 -2.86937997
C  1.09650628 -0.5897286  -1.9286555 
O  2.47550882 -0.32695236 -2.21434683
C  3.38611123 -0.80559027 -1.25256241
H  0.24890757 -2.09316949  3.78972319
H  0.0881443  -1.21305979  5.20885559
H -1.40035319 -1.73751699  4.66218567
H -1.97692463 -0.93169603  2.26261048
H -0.30644245 -1.1019815   1.66866905
H 0.17004139 1.15873973 1.39978373
H -1.64571402  1.45727276  2.0713375 
H -0.20682589  1.79895777 -1.04179329
H -1.78553607  2.62836164 -0.42438622
H -2.86484456  0.94402627 -2.0357426 
H -1.96527151  2.10650622 -2.89663062
H  0.3692262  -0.28161798 -3.79005615
H  0.58264832  1.1762214  -2.87209416
H  0.996605   -0.40182553 -0.87172335
H  0.95939833 -1.62561767 -2.08267114
H  3.48591548 -1.89206205 -1.15056598
H  4.40535569 -0.35219474 -1.45833127
H  3.0816062  -0.36824258 -0.29626032
