30

C -1.94014191  0.58965083  5.60398621
O -1.18837793  0.05833066  4.51884975
C -1.08073262  0.88663473  3.37240379
C -0.25908487  0.13043443  2.32478082
O -0.21304422  1.02494059  1.17797742
C 0.35988572 0.43217119 0.02079713
C  0.34632443  1.53396534 -1.07634148
O -0.41694449  1.17451963 -2.19813734
C  0.19109605  0.60769528 -3.33181329
C  0.69258632 -0.84730557 -3.16213479
O  1.22071865 -1.37724888 -4.25910441
C  1.63485536 -2.66007261 -4.27153327
H -2.94397226  0.74286957  5.31605509
H -2.02425986 -0.29617886  6.27549704
H -1.56461886  1.43888546  5.97070098
H -0.57352373  1.77385354  3.58407685
H -2.0930301   1.15541343  2.87553271
H -0.64116378 -0.81469261  1.91099755
H  0.67087743 -0.09570595  2.80935546
H -0.30222453 -0.40975217 -0.38043532
H 1.4526443  0.17246348 0.25297461
H -0.16887013  2.36098893 -0.8262599 
H  1.40708155  1.7745904  -1.25266971
H -0.60796429  0.35749647 -4.02971081
H  1.01841744  1.22975875 -3.49909502
H  1.5199626  -0.88818537 -2.32596313
H -0.04757066 -1.53900224 -2.68980733
H  0.79753098 -3.29231613 -4.06349234
H  2.07954323 -2.82123852 -5.29917432
H  2.44041766 -2.91480048 -3.52866726
