30

C  1.04642046 -1.01274236  3.2081681 
O -0.03220974 -0.7852478   2.40609369
C -0.29809184  0.58801185  2.17502881
C -1.50514824  0.7440269   1.21683778
O -1.04743161  1.37921857  0.023327  
C -1.97675215  1.36195667 -1.0503824 
C -1.27524636  1.87202113 -2.25568415
O -0.54670439  0.85936955 -2.91245562
C  0.749958    0.52774779 -2.32156973
C  0.64632118 -0.84077521 -1.72416466
O  1.92615322 -1.21358051 -1.25997044
C  1.90863733 -2.23640694 -0.2397505 
H  0.79791773 -0.72751773  4.23783019
H  1.31767228 -2.13081875  3.22839407
H  1.98403589 -0.53368494  2.86568176
H 0.46157829 1.22123131 1.74381143
H -0.61866134  0.94236768  3.20003466
H -2.2318982   1.38355031  1.68781394
H -1.81854394 -0.2450768   0.88974944
H -2.78720119  1.98113923 -0.77509134
H -2.29789707  0.30843037 -1.23054796
H -2.09519236  2.13127145 -3.02782141
H -0.62018526  2.61900724 -2.03913558
H  1.4624626   0.60885551 -3.17631464
H  1.08358811  1.32632262 -1.58288944
H -0.10998632 -0.66525968 -0.9414135 
H  0.31124236 -1.62598719 -2.47917248
H  1.64801517 -3.28501228 -0.61368205
H  2.8988858  -2.49904593  0.26413167
H  1.17468674 -2.01305949  0.59563171
