30

C 1.06489553 0.11595775 2.17821247
O -0.18264742  0.4554531   2.80382719
C -1.17240758 -0.48988512  2.58973794
C -1.90450388 -0.42207659  1.18940368
O -1.27206048  0.55478943  0.4178702 
C -1.97805858  1.01401424 -0.7028517 
C -1.16413728  2.12278453 -1.39962185
O -0.12326638  1.60669378 -2.27502899
C  1.00858031  1.03476464 -1.6760392 
C  0.97179136 -0.45594706 -1.70549547
O  2.08628673 -0.77940635 -0.94903029
C  2.42391158 -2.18336975 -0.86654174
H  1.09269561 -0.03994942  1.16333625
H 1.69852376 0.90631008 2.66978343
H  1.23427266 -0.85869384  2.72121015
H -1.91423704 -0.24672317  3.47703451
H -0.90601886 -1.51943804  2.77834024
H -2.91910135 -0.1434885   1.24415761
H -1.88182826 -1.36058014  0.62480654
H -2.88048482  1.4362242  -0.30857886
H -2.22594347  0.1732818  -1.41600822
H -1.83543696  2.66365915 -2.10814775
H -0.74939247  2.78795577 -0.59149799
H  1.87497559  1.3884834  -2.24248625
H  0.95261158  1.5060395  -0.78696138
H  0.23655824 -0.88870545 -1.11608806
H  1.05269246 -0.94556153 -2.75281579
H  2.65063501 -2.55998932 -1.87068163
H  3.44156261 -2.16732274 -0.28501304
H  1.51290706 -2.61803153 -0.42338815
