30

C -0.27024244 -0.29685748  4.20255236
O  0.51750999 -0.70346992  3.14405549
C 0.57823023 0.1463177  1.97579285
C -0.78937437  0.38216183  1.43774637
O -0.57067868  1.06283882  0.16423754
C -1.71769679  1.13660394 -0.65376086
C -1.31600921  1.97846899 -1.91658638
O -0.64553767  1.15767825 -2.85906133
C  0.64119593  0.65656733 -2.57092294
C  0.51833739 -0.73000099 -2.02918514
O  1.88673557 -1.24823719 -1.89057616
C  1.92697342 -2.5602245  -1.39994861
H -1.28859352 -0.19105194  3.95970688
H -4.19432413e-03 -8.52238448e-01  5.01378283e+00
H -0.11833618  0.75603161  4.52701267
H  1.06882534 -0.51234875  1.3470789 
H 1.03802361 1.19130221 2.2927396 
H -1.41803939  1.04873141  1.91568353
H -1.36258287 -0.48192822  1.13881359
H -2.46398532  1.76196074 -0.25815862
H -2.09106323  0.10238589 -0.85128931
H -2.23932873  2.38339727 -2.35368716
H -0.66484227  2.80442116 -1.48901659
H  1.04186033  0.57992813 -3.5641721 
H  1.29109139  1.30026062 -1.88740993
H  0.09628942 -0.8804549  -1.01292297
H -0.19914201 -1.33451129 -2.71088475
H  1.50730878 -3.38916733 -2.07422471
H  3.07550514 -2.75431506 -1.27870244
H  1.55045291 -2.78024087 -0.45331514
