30

C -1.72984139  0.535309    5.66264297
O -1.13695955  0.01523411  4.46328266
C -0.97656955  0.8639142   3.40389618
C -0.4882168   0.1460671   2.20365982
O -0.39462653  1.01493998  1.12219837
C -0.01347047  0.45326279 -0.12922081
C  0.07212053  1.60005903 -1.13599514
O -0.47979608  1.1725744  -2.33980436
C  0.39398809  0.62593692 -3.29011434
C  0.76671927 -0.84315578 -3.08873312
O  1.50089434 -1.32905469 -4.22551873
C  1.78815705 -2.73675142 -4.10802913
H -2.65087618  0.98351735  5.40098688
H -1.77715939 -0.23925791  6.44629142
H -1.04944602  1.32946304  6.13332208
H -0.26143598  1.65408074  3.64350955
H -1.94024336  1.414844    3.08689966
H -1.15853321 -0.73882864  1.98561284
H  0.38851589 -0.2911613   2.49648842
H -0.70598656 -0.26496953 -0.48064565
H  0.98049309 -0.12043199  0.1240829 
H -0.44855377  2.56354911 -0.84427893
H  1.16093197  1.75933757 -1.34200902
H -0.04795139  0.61472551 -4.28717198
H  1.29790695  1.26061387 -3.37370845
H  1.42309829 -0.92475378 -2.13278941
H -0.15913197 -1.34784911 -2.93798296
H  0.90865672 -3.40024363 -4.03450743
H  2.21893774 -2.99045895 -5.17756023
H  2.52141426 -2.89876648 -3.30601259
