30

C  1.38536168 -0.21135632  2.86494363
O  0.35599977 -0.17565454  1.8929149 
C -0.8797289   0.311888    2.39833458
C -1.84004317  0.55279104  1.29319032
O -1.11571539  1.15257835  0.21778706
C -1.83928074  1.44584127 -0.97003956
C -0.86204706  1.91230045 -2.09215984
O -0.39965303  0.87092418 -2.92448231
C  0.83261953  0.26641481 -2.5641919 
C  0.66903597 -0.74441952 -1.41886144
O  1.7095131  -1.70014002 -1.49355057
C  1.79553756 -2.60825041 -0.40765605
H  0.98797499 -0.89611319  3.73909019
H  2.20761006 -0.64262544  2.33513224
H 1.54809422 0.78398809 3.24602604
H -0.69785298  1.25831403  3.10831115
H -1.2180232  -0.49407213  3.0697857 
H -2.62799339  1.23729162  1.53013087
H -2.29621859 -0.40899093  0.95525392
H -2.62390094  2.08692695 -0.61059755
H -2.32001091  0.56957977 -1.37755182
H -1.31856614  2.59618475 -2.70659828
H -0.00347776  2.45957554 -1.59229746
H  1.25943796 -0.29641686 -3.4685648 
H  1.62490824  1.02161024 -2.1832775 
H  0.54251883 -0.24876269 -0.38882661
H -0.24204829 -1.31085327 -1.62682975
H  1.02257634 -3.27899189 -0.43592186
H  2.78085955 -3.15387101 -0.61328413
H  1.82157407 -2.12973915  0.56681532
