30

C -1.75004452  0.43404799  5.5816055 
O -1.10932543  0.02334132  4.43806825
C -1.10078733  0.9241025   3.35768434
C -0.41931863  0.17070807  2.17681309
O -0.34541711  1.09447228  1.17965677
C 0.21733545 0.55434565 0.00776052
C  0.16903959  1.61027489 -1.06948102
O -0.45781759  1.16384549 -2.31863621
C  0.39383269  0.5738328  -3.24572667
C  0.74161271 -0.91809949 -3.03490789
O  1.33111342 -1.38476657 -4.23755906
C  1.64599673 -2.72984459 -4.22356964
H -2.88254234  0.68473662  5.39340649
H -1.82901926 -0.38431818  6.36613307
H -1.26207881  1.19830681  6.04202268
H -0.5607673   1.88321685  3.67833844
H -2.06527515  1.30030261  3.04457973
H -1.08754373 -0.66937994  1.84717537
H  0.56672769 -0.22084839  2.5417158 
H -0.37915411 -0.32244152 -0.34340122
H 1.26307165 0.19553735 0.23005549
H -0.31091539  2.53047587 -0.77054368
H  1.23790064  1.88291803 -1.30338653
H -0.06383613  0.75279792 -4.27211491
H  1.33174883  1.2089261  -3.30182143
H  1.51113623 -0.98529516 -2.26836443
H -0.04899464 -1.45452028 -2.70269524
H  0.75459238 -3.32268176 -4.16971502
H  2.32736746 -3.03383867 -5.11944173
H  2.24915035 -2.93401644 -3.23542924
