30

C -0.25357297 -1.41429889  4.24081134
O -0.37583912 -0.34735969  3.3477929 
C -0.84464724 -0.5512121   2.04716707
C -1.00502336  0.80350961  1.38243696
O -1.32907473  0.55444854  0.03692689
C -1.48994182  1.67143492 -0.7602368 
C -1.83839048  1.16768874 -2.21606733
O -1.09614625  0.1560185  -2.76033893
C  0.32079069  0.36591274 -2.92918995
C  1.02604113 -0.12949431 -1.64215505
O  2.33808478 -0.59751479 -2.03706641
C  3.15133513 -1.13591458 -1.03942968
H  0.41024722 -2.1549104   3.86912002
H  0.11012369 -1.08444489  5.22004159
H -1.32359638 -1.88567854  4.31193333
H -1.78271348 -1.12558121  2.04321239
H -0.15203192 -1.10203623  1.39891423
H -1.17854651e-03  1.20563945e+00  1.51167216e+00
H -1.78792809  1.50612744  1.79833435
H -0.54585128  2.26648197 -0.84728245
H -2.17899539  2.34372782 -0.38876253
H -2.76448709  0.73673418 -2.22631189
H -1.79824365  2.06953745 -2.82971597
H  0.55136306 -0.29511534 -3.8040398 
H  0.61097572  1.44596929 -3.18400148
H  1.09597235  0.65762672 -0.79366311
H  0.53053904 -1.06205179 -1.20003044
H  2.59134461 -1.89903687 -0.57479811
H  4.07880831 -1.45361754 -1.49711799
H  3.45647711 -0.3655816  -0.30589316
