30

C -0.53267618  0.08814816  5.34543248
O -1.14371528 -0.17075575  4.07781355
C -0.56204547  0.597772    3.06168485
C -1.30071265  0.25502987  1.81437619
O -0.80872766  1.02854843  0.7841529 
C -1.33541956  0.7517053  -0.54160941
C -0.69992976  1.73818912 -1.55510575
O -0.68034214  1.16452056 -2.86262716
C  0.47765774  0.5328835  -3.37940097
C  0.87283302 -0.75513491 -2.72588306
O  2.00376121 -1.27039355 -3.35594357
C  2.5099088  -2.50638906 -2.86255231
H -0.8313987   1.12695445  5.65004616
H -1.06087132 -0.61400783  5.9019427 
H  0.58035289 -0.13386679  5.37881219
H 0.49260739 0.30800666 2.80368534
H -0.75068711  1.63776151  3.23040053
H -2.32628042  0.44377377  1.95276734
H -1.22975053 -0.82392923  1.54839953
H -2.40401866  0.86272175 -0.65020787
H -0.99281403 -0.25734012 -0.81134448
H -1.24116333  2.72441084 -1.64342831
H  0.28147148  2.0685584  -1.23658893
H  0.2693446   0.35434026 -4.41693995
H  1.32260344  1.27827258 -3.24097325
H  1.11363441 -0.5434702  -1.66583044
H -0.05500701 -1.43978115 -2.65581974
H  1.9594011  -3.4327828  -3.00379687
H  3.4267842  -2.66886598 -3.48800764
H  2.77247284 -2.4383298  -1.88786497
