30

C  0.561043   -0.72999403  4.04601883
O -0.53737888 -0.31758687  3.26502188
C -0.14492755  0.236627    2.01069918
C -1.41179018  0.56996918  1.25765955
O -1.00348851  1.02116756 -0.01094133
C -2.04896845  1.38168437 -0.94317064
C -1.40906384  1.8375872  -2.22487346
O -0.62159017  0.92366346 -2.84562839
C  0.69491582  0.6557912  -2.3373583 
C  0.70123531 -0.80866347 -1.91528479
O  2.05559391 -0.99086924 -1.47949077
C  2.29647203 -2.25107798 -0.9324541 
H 1.23851899 0.21785822 4.34314614
H  0.07306825 -1.01390296  5.04949922
H  1.04886818 -1.48213652  3.65451036
H  0.42539638 -0.64058113  1.48621258
H 0.39014614 1.19968325 2.24316638
H -1.89371093  1.39223995  1.71324603
H -2.15679831 -0.2588709   0.98014932
H -2.45933986  2.29197567 -0.4508252 
H -2.62787016  0.46028953 -1.08549235
H -2.10674978  2.04172306 -3.0438539 
H -0.83373868  2.65604744 -2.05909915
H  1.44017287  0.82608537 -3.20717036
H  0.97804638  1.28859033 -1.48679286
H  0.02576548 -0.86038089 -1.12641552
H  0.53001548 -1.48482436 -2.707827  
H  2.14240723 -3.05978953 -1.71751224
H  3.40176143 -2.26484495 -0.47342959
H  1.57339016 -2.44731501 -0.07198155
