30

C -1.26838349 -1.29556719  4.85961336
O -0.92994227 -0.24455532  3.95228908
C -1.44284485 -0.43174547  2.65241355
C -0.93148657  0.68668566  1.77473174
O -1.48894178  0.47222748  0.50649202
C -1.07047065  1.34117316 -0.52539813
C -1.69261497  0.90228983 -1.8168119 
O -0.93273619 -0.12946936 -2.47938866
C  0.30776762  0.26344441 -3.05090157
C  1.48673513 -0.42560707 -2.31195705
O  2.69199988 -0.00714525 -2.95196719
C  3.88730214 -0.5748387  -2.38531659
H -0.85537702 -2.24120504  4.51063506
H -0.7140664  -0.96653509  5.80235516
H -2.3936905  -1.29094059  4.93153152
H -2.55240174 -0.33772306  2.63094475
H -1.18605804 -1.33776391  2.20303155
H 0.12766411 0.63592603 1.69485975
H -1.17499239  1.62344905  2.22956488
H  0.03074426  1.35933175 -0.48225355
H -1.46039463  2.41134131 -0.18307962
H -2.72103398  0.50996719 -1.7013121 
H -1.72268479  1.66855684 -2.54841668
H  0.34736916 -0.13315805 -4.02626109
H  0.31406245  1.34010643 -3.11100197
H  1.67986438 -0.14715455 -1.25130232
H  1.36885685 -1.48815573 -2.43789859
H  3.86470065 -1.65961155 -2.55918194
H  4.57499733 -0.13407556 -2.9280054 
H  4.0543255  -0.37391101 -1.28218132
