30

C -0.514648  2.75255   1.45141 
O -0.568966  3.37411   0.16739 
C -1.36336   2.81203  -0.856232
C -0.689558  1.74843  -1.69239 
O -1.01602   0.462478 -1.21939 
C -0.5158  -0.60341 -1.96407
C -0.755328 -1.89648  -1.3738  
O  0.023437 -2.11239  -0.25158 
C -0.347276 -1.32602   0.855604
C  0.442813 -1.83108   2.05297 
O  1.77835 -1.97139  1.89185
C  2.23919 -3.15792  1.15251
H -1.4209   3.00949  2.02216
H 0.376812 3.25528  1.84867 
H -0.35385  1.68767  1.53821
H -1.72518  3.59336 -1.49644
H -2.18458   2.30193  -0.384814
H -1.02894  1.81442 -2.82233
H  0.366216  1.84876  -1.65473 
H  0.571432 -0.628455 -2.18975 
H -0.959999 -0.605197 -2.98986 
H -1.77411 -2.01931 -1.15322
H -0.467877 -2.66203  -2.05744 
H -0.0919767 -0.291726   0.774883 
H -1.36262 -1.37673  1.15111
H  0.127637 -1.19828   2.86809 
H -0.106745 -2.71132   2.36855 
H  2.32994 -3.93766  1.9241 
H  1.47389  -3.48927   0.463586
H  3.2155   -3.02594   0.717388
