30

C -0.668852  0.991466 -5.0168  
O -0.430195  0.995612 -3.62385 
C -0.759437  2.13672  -2.88505 
C -0.405049  1.75135  -1.46838 
O -1.54021  1.02298 -0.94534
C -1.3325   -0.362187 -0.969883
C -0.237586  -0.921391  -0.0843896
O -0.689284 -1.17112   1.27321 
C -0.0235245 -0.611526   2.3996   
C  0.59817 -1.76529  3.23494
O  1.72782 -1.31412  3.94821
C  2.41838 -2.40918  4.56636
H -1.58632  1.52074 -5.18231
H -0.884917  -0.0751079 -5.33093  
H  0.0767125  1.46523   -5.67038  
H -1.88751  2.28981 -2.94971
H -0.178947  2.99209  -3.21166 
H  0.572013  1.25311  -1.41623 
H -0.345978  2.72385  -0.94349 
H -1.0839   -0.691894 -2.00919 
H -2.17558  -0.931425 -0.529972
H -0.0105206 -1.9542    -0.493111 
H  0.727766  -0.431591  -0.0462081
H  0.906563 -0.087151  2.10124 
H -0.622033  0.092499  2.98677 
H -0.0901443 -2.15008    3.99882  
H  0.874129 -2.54929   2.56648 
H  3.34044 -1.95045  4.89032
H  1.98636 -2.8963   5.43691
H  2.56778 -3.28789  3.92331
