30

C 3.93987   2.67982   0.0733404
O 2.90491  1.73284  0.404955
C 1.6386   2.16109  0.714933
C 0.749974 1.00668  0.749327
O 1.11267   0.0935404 1.7361   
C  0.942487 -1.29627   1.45852 
C -0.536325 -1.6239    1.40025 
O -1.22357  -1.1467    0.310344
C -1.15508  -1.86526  -0.913327
C -1.95908 -1.1887  -2.02655
O -3.31427 -1.55927 -2.14851
C -4.26497 -0.88185 -1.3202 
H  3.80932  2.98816 -1.02255
H 4.90319  2.27743  0.247612
H 3.96987  3.44338  0.855504
H 1.28163   2.85609   0.0101564
H 1.54595 2.50915 1.73493
H -0.306385  1.36992   0.985094
H  0.682273  0.543607 -0.178401
H  1.28674 -1.87353  2.36167
H  1.4496   -1.71652   0.537918
H -0.600692 -2.75207   1.59118 
H -0.939622 -1.25455   2.40213 
H -0.152065 -2.05261  -1.29095 
H -1.60865  -2.84142  -0.755504
H -1.85425   -0.0842125 -1.84555  
H -1.43652 -1.32912 -3.03503
H -4.11306 -1.2488  -0.31784
H -4.18921   0.150218 -1.2889  
H -5.28581 -1.2633  -1.61419
