30

C  3.0385   -0.650955  3.08761 
O  3.55941  -0.175785  1.84654 
C  3.34131  -0.998862  0.810724
C  2.0273   -0.585974  0.285645
O  1.33008  -1.63209  -0.345444
C  0.461769 -1.28498  -1.38936 
C -0.935774 -0.954625 -0.896275
O -0.867834  0.398934 -0.334836
C -1.95363   0.719707  0.588668
C -2.96254   1.39912  -0.206624
O -3.79359   0.61757  -0.981731
C -4.35635  1.27781 -2.11328
H  1.97656  -0.601639  3.16947 
H  3.46018   -0.0590385  3.91707  
H  3.33552 -1.71338  3.11248
H  3.25947 -2.09922  1.11107
H  4.23101  -1.00907   0.106701
H  1.34021  -0.166768  1.14667 
H  2.0018    0.232151 -0.486814
H  0.533465 -2.15831  -2.07154 
H  0.848198 -0.461642 -1.97263 
H -1.60002  -0.836001 -1.75554 
H -1.25892  -1.70395  -0.153722
H -2.23653  -0.169603  1.14268 
H -1.60108  1.52084  1.241  
H -3.52357   1.97496   0.541516
H -2.41701   2.11318  -0.838604
H -5.06631   0.596227 -2.6326  
H -4.85446  2.19653 -1.82959
H -3.58319  1.505   -2.85895
