30

C  3.86478  -0.834662  2.83397 
O  2.66398  -0.643527  2.2278  
C 2.587    0.618965 1.42398 
C 1.29009  0.503674 0.576942
O  1.06628  -0.79307   0.129567
C  0.052328 -1.52151   0.770103
C -1.40408  -1.04988   0.468752
O -1.78353  -1.4624   -0.783674
C -1.49394  -0.761404 -1.93109 
C -2.48348   0.279514 -2.41142 
O -2.2521   1.58571 -1.80686
C -3.35347  2.19388 -1.23579
H  3.86465 -1.79567  3.32503
H  4.09146  -0.102358  3.59153 
H  4.67401  -0.840233  2.08758 
H 3.41358  0.590321 0.77818 
H 2.72238 1.55877 1.96687
H 0.44803  0.832316 1.2445  
H  1.45502   1.20352  -0.214494
H  0.233644 -1.42694   1.85132 
H  0.171997 -2.58631   0.540523
H -2.02085 -1.6225   1.16746
H -1.62961    0.0160215  0.690559 
H -0.456761 -0.346229 -1.87628 
H -1.46358 -1.49807 -2.76987
H -2.38951   0.287651 -3.54849 
H -3.5358    -0.0204158 -2.1038   
H -4.11231  2.487   -1.88863
H -3.75838   1.52391  -0.473305
H -3.14609   3.13802  -0.762865
