30

C  0.823999  4.14217  -1.53424 
O  0.667879  3.17032  -2.53261 
C -0.250766  2.12832  -2.22426 
C  0.165174  1.2609   -0.956197
O -0.186847  1.86298   0.292882
C -1.28233   1.2934    0.978019
C -0.966046   0.0943428  1.87103  
O -0.689083 -1.02071   1.11467 
C  0.281912 -1.94858   1.61369 
C  0.0175585 -3.47303    1.51439  
O  0.0358675 -3.91446    0.202799 
C  0.101325  -5.30688    0.0935837
H  1.54283  4.87696 -1.90919
H  1.44354   3.7516   -0.767445
H -0.173899  4.66187  -1.20801 
H -0.319925  1.36793  -3.06141 
H -1.23093  2.6342  -2.0549 
H -0.253165  0.253277 -1.06504 
H  1.25457   1.2631   -0.962616
H -2.06426   0.999793  0.245625
H -1.71012  2.04852  1.60021
H -0.133611  0.362831  2.51286 
H -1.79169   -0.0993856  2.63166  
H  1.30919 -1.64391  1.39878
H  0.281096 -1.81534   2.68878 
H  0.860203 -3.98693   2.12638 
H -0.873848 -3.92798   2.05485 
H  0.0936045 -5.58526   -0.958968 
H  0.983478 -5.67938   0.539128
H -0.762591 -5.7347    0.478281
