30

C -2.02299  -2.55     -0.702465
O -2.65587  -2.20716   0.529788
C -3.23472  -0.881973  0.542769
C -2.69051  -0.063789  1.72727 
O -1.38572   0.387624  1.41166 
C -0.322636 -0.431983  1.84273 
C 1.00162  0.335784 1.54366 
O 1.40585   0.0982989 0.25207  
C  0.84161   0.881878 -0.816699
C  1.47028   0.579415 -2.12319 
O  2.66275  1.29682 -2.27711
C  3.65351   0.876405 -1.39797 
H -1.80198  -3.62657  -0.599589
H -1.0747   -2.05679  -0.857039
H -2.67671 -2.26248 -1.48615
H -4.35015  -0.977387  0.525296
H -2.86078  -0.39334  -0.346016
H -3.19088   0.877525  1.62204 
H -2.92713  -0.635807  2.65616 
H -0.276526 -1.30012   1.23482 
H -0.474295 -0.772184  2.84692 
H 0.726733 1.39847  1.87898 
H  1.80764   -0.0207642  2.18505  
H -0.240531  0.526895 -0.845825
H  0.916022  1.92961  -0.581485
H  1.50171  -0.523375 -2.35913 
H  0.681081  1.02381  -2.79967 
H  3.79145  -0.208014 -1.22378 
H  4.62699  1.28592 -1.65855
H  3.43436   1.1617   -0.397982
