30

C -0.281997 -1.48135  -3.59245 
O -0.977125 -0.299534 -3.80699 
C -0.885054  0.723926 -2.81942 
C -2.01255   0.672711 -1.83632 
O -1.58934  -0.149103 -0.770952
C -2.05762   0.103487  0.577612
C -1.12888  1.03379  1.38557
O -0.0555668  0.293453   1.982    
C 1.04096  0.258616 1.21296 
C  1.82777 -1.08612  1.5546 
O  2.66477  -0.906971  2.63751 
C  2.12683  -0.822207  3.8694  
H -0.890828 -2.12861  -2.89067 
H  0.691346 -1.36645  -3.19679 
H -0.226864 -2.0921   -4.54612 
H -0.986452  1.71301  -3.24073 
H  0.0983404  0.790622  -2.3354   
H -2.32336  1.73185 -1.57265
H -2.88994   0.223752 -2.33493 
H -2.20043 -0.83554  1.07448
H -2.99268   0.602387  0.380613
H -0.65912   1.87012   0.767696
H -1.67578  1.42727  2.2772 
H 0.832733 0.25725  0.150658
H 1.70913 1.10977 1.37053
H  1.1831  -1.95978  1.65001
H  2.48857 -1.19222  0.7103 
H 1.50724   0.0762406 4.01801  
H  1.55013 -1.76899  4.11674
H  2.94233  -0.739235  4.55618 
