30

C -4.06122   0.565746 -1.64968 
O -3.63425  1.66262 -2.60192
C -2.40727  2.27663 -2.22915
C -1.19226  1.34633 -2.23271
O -1.21253   0.537041 -1.10108 
C  0.0285639 -0.194158  -0.890968 
C  0.995095   0.683239  -0.0885242
O 2.02302   0.0388816 0.535904 
C  1.59366  -0.643014  1.72555 
C  2.52525 -1.76343  2.14042
O  1.7837  -2.44978  3.22008
C  2.4607  -3.66898  3.45647
H -4.15573   1.03564  -0.637988
H -3.32441  -0.234136 -1.62125 
H -4.97707   0.196668 -2.03759 
H -2.50222  2.69132 -1.22454
H -2.29792  3.0651  -2.97639
H -1.28935   0.663281 -3.10631 
H -0.240892  2.03239  -2.30527 
H  0.511747 -0.388101 -1.85335 
H -0.240486 -1.11637  -0.375289
H  1.37438   1.45782  -0.756516
H 0.417087 1.20292  0.690992
H 1.66588  0.156471 2.44734 
H  0.519142 -0.955696  1.63438 
H  2.67408 -2.48921  1.32156
H  3.50337 -1.40376  2.41489
H  2.67208 -4.29414  2.59189
H  3.48036 -3.5403   3.87621
H  1.90784 -4.32806  4.12741
