30

C -0.289527 -1.99496  -3.55895 
O -0.928703 -1.86424  -2.29585 
C -1.76654  -0.786563 -2.13934 
C -2.3802   -0.661841 -0.676604
O -1.99015   0.546364 -0.090028
C -2.40647   0.933135  1.23877 
C -1.41222   0.434206  2.36331 
O -0.170731  1.00969   2.05651 
C 0.712684 0.155553 1.38439 
C 2.07972  0.741283 1.15399 
O  2.84747  -0.283628  0.552451
C 4.2227    0.0593903 0.614355 
H -1.07536 -2.15043 -4.28683
H  0.469175 -2.78616  -3.57251 
H  0.379921 -1.12336  -3.66693 
H -2.57761  -0.783267 -2.89237 
H -1.20621   0.175745 -2.13603 
H -3.45826  -0.664574 -0.780071
H -2.03383   -1.54276   -0.0530884
H -3.38851   0.684242  1.51164 
H -2.38711  2.02674  1.17556
H -1.81894   0.955466  3.24027 
H -1.37231  -0.639522  2.35441 
H  0.814717 -0.690998  2.00881 
H  0.27467  -0.184561  0.373937
H 2.01849  1.73928  0.542136
H 2.53345  0.880635 2.08913 
H  4.51191     0.95977    -0.00557732
H 4.55707  0.340778 1.6171  
H  4.88012  -0.715333  0.221203
