30

C  4.20399  -0.302503 -1.36597 
O  3.51263 -1.32505 -0.6908 
C  2.43332 -1.79011 -1.52371
C  1.54532 -2.86272 -0.72298
O  0.804923 -2.34288   0.29151 
C -0.247625 -1.44911  -0.094769
C -0.862583 -0.854859  1.14374 
O -1.5055    0.347881  0.766551
C -2.6443    0.695433  1.50439 
C -2.92972  2.11568  1.48225
O -3.35337   2.6166    0.280654
C -2.31776   3.1426   -0.500805
H  4.26858  -0.588738 -2.42256 
H  5.20017  -0.146091 -0.97568 
H  3.6012    0.598702 -1.41285 
H  2.78084 -2.32643 -2.40942
H  1.9295   -0.957042 -2.00124 
H  0.993696 -3.4216   -1.54159 
H  2.13527  -3.60635  -0.338397
H -0.845037 -1.85362  -0.897187
H  0.18376  -0.601036 -0.557626
H -1.53397 -1.56722  1.75521
H  0.0401358 -0.571118   1.73656  
H -3.52179   0.176171  1.12623 
H -2.55763   0.441443  2.53024 
H -3.81363  2.25124  2.20342
H -1.97164  2.57249  1.86758
H -2.73955  3.8979  -1.23216
H -1.56622   3.67145   0.163165
H -1.7237   2.49723 -1.14123
