30

C  5.46697  -0.730365 -0.518097
O  4.13131  -0.712342 -0.882285
C  3.28766  -0.363899  0.167754
C  1.80106  -0.496803 -0.159214
O  1.35621  -1.68034  -0.793322
C  0.0321225 -1.64511   -1.32874  
C -1.14982  -1.50093  -0.294355
O -1.38487  -0.214536  0.106994
C -2.44934   -0.0272459  1.02499  
C -3.17408   1.17889   0.494703
O -4.44114  1.45015  1.06267
C -4.71393  2.81943  1.46776
H  6.04052 -1.15524 -1.36458
H  5.65656  -1.29557   0.372512
H  5.83267   0.283304 -0.43083 
H 3.4871   0.617532 0.611755
H  3.40925  -1.13003   0.899087
H  1.29707  -0.474594  0.884594
H  1.4846    0.366576 -0.721559
H -0.0362444 -2.65556   -1.70835  
H  0.0265169 -0.909543  -2.20789  
H -2.09919  -1.85459  -0.810173
H -1.05085  -2.2531    0.520458
H -3.23933  -0.840717  0.967232
H -2.03531    0.0968071  2.02027  
H -2.55921   2.01533   0.670332
H -3.23937   1.04305  -0.575862
H -5.01022   3.36681   0.519109
H -5.51887  2.74193  2.19488
H -3.85156  3.27581  1.81252
