30

C -2.60964  -0.569209  1.99899 
O -2.76898 -1.97398  2.02041
C -1.49979 -2.65958  2.02735
C -1.0199   -3.03465   0.675581
O -0.260558 -1.99835   0.294323
C -0.101337 -1.85008  -1.06851 
C -0.120776 -0.522934 -1.57725 
O  1.07764    0.0239227 -1.32635  
C  1.3841   1.36538 -1.67533
C  1.57425   1.90035  -0.192665
O  1.1485     3.25368   -0.0190883
C  2.03853   4.06043  -0.811051
H -2.43601  -0.259876  3.02683 
H -3.49896   -0.0691382  1.5604   
H -1.77783  -0.182471  1.30655 
H -0.774944 -2.17504   2.71129 
H -1.73832 -3.60087  2.56604
H -0.441604 -4.0146    0.77066 
H -1.89633   -3.0751     0.0297508
H -0.849574 -2.46384  -1.61539 
H  0.900283 -2.36679  -1.36911 
H -0.27994  -0.695155 -2.62409 
H -1.00602  -0.012134 -1.17097 
H  2.29189  1.39865 -2.37989
H  0.584015  1.88297  -2.22217 
H 0.955834 1.34703  0.511366
H 2.65249   1.90304   0.0117928
H  1.68659   5.10481  -0.830565
H  3.13712   3.97009  -0.572872
H  1.97257  3.69352 -1.86362
