30

C -1.44711  2.27062 -2.74268
O -0.139426  2.21342  -2.28236 
C  0.250752  1.48097  -1.23168 
C  0.796523   0.0512519 -1.56625  
O -0.111414 -0.899987 -2.16912 
C -0.480736 -1.99392  -1.40156 
C -1.25674  -1.86989  -0.104122
O -0.439795 -1.11831   0.717363
C -1.00097  -0.724058  1.93231 
C -0.140427  0.23677   2.74672 
O  0.784448 -0.486209  3.54446 
C  1.95421 -1.01153  2.93967
H -2.24128  1.80239 -2.08839
H -1.62783  1.90342 -3.73957
H -1.8202   3.33554 -2.8182 
H -0.513463  1.5084   -0.41456 
H  1.17946   1.8826   -0.812109
H  1.54424   0.140795 -2.31366 
H  1.25668  -0.41267  -0.707509
H  0.370531 -2.59989  -1.16973 
H -1.05219 -2.52972 -2.06678
H -2.26294  -1.33816  -0.185026
H -1.37282  -2.87709   0.330609
H -1.99668  -0.334848  1.8418  
H -1.24724 -1.69251  2.49322
H 0.424905 0.8778   2.09097 
H -0.799159  0.929605  3.32978 
H  2.75188  -0.265568  2.70557 
H  2.40295 -1.79757  3.50829
H  1.80139 -1.58121  2.01358
