30

C  0.680702  3.86009  -0.254851
O -0.757086   3.93921    0.0894515
C -1.40962   2.86851  -0.593355
C -1.60833   1.70762   0.323716
O -0.282693  1.14915   0.470514
C -0.0824805  0.590451   1.71805  
C -0.547777 -0.876707  1.64725 
O  0.271079 -1.69386   0.873616
C  0.173666 -1.55274  -0.540483
C  0.0309722 -2.90138   -1.19414  
O  1.19214  -3.69888  -0.930395
C  1.05484 -5.1359  -1.11482
H  0.918802  4.13357  -1.33155 
H 1.24365 2.96836 0.22316
H 1.14508  4.71421  0.286243
H -0.801974  2.5631   -1.46894 
H -2.3934    3.19151  -0.980034
H -2.06965  2.02762  1.31294
H -2.3515     1.02199   -0.0402735
H -0.635458  1.05468   2.55037 
H 0.962162 0.628297 1.934   
H -0.51919 -1.28849  2.70182
H -1.57847 -0.92051  1.22625
H -0.767913 -1.00096  -0.843892
H  1.01889 -1.00924 -0.94884
H -0.887589 -3.3145   -0.762768
H -0.0994854 -2.73836   -2.22265  
H  1.65918 -5.32113 -2.00661
H  1.32607  -5.66585  -0.277295
H -0.032804 -5.30856  -1.42708 
