30

C 3.38483 2.3036  1.71965
O 3.56021  2.65647  0.347353
C  3.54365   1.67659  -0.688308
C  2.0576    1.22102  -0.881807
O  1.69928    0.104523  -0.0801176
C 0.425757 0.252168 0.679375
C -0.781002  0.262244 -0.176441
O -1.65764   -0.855664   0.0770187
C -2.64104  -0.975395 -0.965972
C -3.84329  -1.7889   -0.547285
O -3.72272  -3.17662  -0.275637
C -3.22477 -3.43645  1.00524
H 3.99904 1.50966 2.08807
H 2.3369  1.94323 1.91216
H 3.64238 3.19249 2.371  
H  4.23766   0.877896 -0.524428
H  3.85169  2.16795 -1.63608
H  1.5174    2.06026  -0.544699
H  1.97264  0.9551  -1.95509
H 0.489697 1.22954  1.17238 
H  0.421288 -0.600972  1.34047 
H -1.40974   1.12692  -0.131439
H -0.44607   0.242691 -1.20671 
H -3.04881    -0.00836172 -1.20253   
H -2.13087 -1.36509 -1.7798 
H -4.27473  -1.31613   0.332144
H -4.60545 -1.57428 -1.27297
H -3.98068 -3.4639   1.80809
H -2.89986 -4.47683  0.89851
H -2.40083 -2.79642  1.32919
