30

C -1.41493  2.84072 -4.08144
O -1.19877  1.67587 -3.37338
C -0.837993  1.77576  -1.97437 
C -1.46154   0.732447 -1.05473 
O -1.13972  -0.614782 -1.23902 
C -1.56691  -1.5426   -0.286735
C -0.658045 -1.71677   0.898638
O -0.618486 -0.71491   1.84199 
C  0.240398 -0.886172  2.90925 
C  1.7037   -0.350118  2.77976 
O  2.41258 -1.05142  1.78379
C  3.26998 -2.03871  2.28621
H -1.73423  2.50206 -5.09136
H -0.537142  3.401    -4.34191 
H -2.18134  3.51465 -3.61089
H -1.28475  2.66836 -1.65384
H  0.207898  1.92682  -1.84302 
H -1.16282    1.10383   -0.0332099
H -2.61747   0.818653 -1.07879 
H -1.73887  -2.49356  -0.820446
H -2.59199   -1.21446   -0.0303973
H -1.0065  -2.63252  1.39236
H  0.270507 -2.02745   0.493372
H -0.285901 -0.162308  3.70506 
H  0.142444 -1.87462   3.31472 
H 1.64914  0.667638 2.49541 
H  2.18881 -0.27704  3.76497
H  3.67489 -2.61245  1.41476
H  4.08777 -1.50915  2.83361
H  2.70814 -2.73528  2.96336
