30

C 2.29973  1.67062  0.363008
O 2.3392   0.283824 0.111347
C  2.01801  -0.582902  1.17553 
C  2.06135  -2.04738   0.848344
O  1.0075   -2.62753   0.125724
C  0.25209  -1.91174  -0.891934
C -0.995015 -1.61587  -0.210288
O -1.75026  -0.884847 -1.22774 
C -2.85708  -0.161128 -0.70305 
C -2.44203   1.29434  -0.611653
O -1.7339   1.53162  0.59214
C -1.45206   2.8952    0.735352
H  2.8472    2.1189   -0.442492
H 2.87844 1.8709  1.31244
H 1.38175  2.14354  0.435727
H  0.939952 -0.352881  1.49696 
H  2.55928 -0.28287  2.0909 
H  2.94587  -2.2865    0.242299
H  2.18446 -2.58101  1.76914
H -0.0608762 -2.6114    -1.65412  
H  0.726184 -0.956687 -1.2817  
H -1.46769   -2.56449    0.0683989
H -0.854745 -0.973107  0.674583
H -3.55756  -0.279289 -1.49841 
H -3.19977  -0.58168   0.258171
H -1.79261  1.62282 -1.54542
H -3.29143   2.04904  -0.621034
H -2.4187    3.43855   0.963212
H -0.797435  2.99438   1.63765 
H -1.04953   3.37848  -0.176584
