30

C -1.69056  3.84226 -1.2057 
O -2.07279  3.04911 -2.36286
C -1.32094  1.9089  -2.6619 
C -1.47511   0.840854 -1.57619 
O -0.462673  1.18052  -0.57441 
C -0.523212  0.611041  0.728718
C  0.463396 -0.518342  0.74579 
O -0.0340659 -1.68284   -0.0166748
C  0.816836  -2.84367   -0.0182472
C  1.14301 -3.28909  1.43681
O  2.03592 -2.45889  2.14478
C  1.90536 -2.52712  3.56456
H -0.68622  4.13821 -1.25975
H -1.79686   3.28852  -0.241872
H -2.38221  4.62746 -1.2496 
H -0.259608  2.1159   -2.64695 
H -1.61503  1.50819 -3.66526
H -2.4567    0.876068 -1.12067 
H -1.31616  -0.200331 -1.90588 
H -1.51248   0.221934  0.871251
H -0.317498  1.4524    1.42141 
H  1.34608  -0.246519  0.361227
H  0.641192 -0.734193  1.86386 
H  0.215298 -3.57596  -0.568806
H  1.67717  -2.59146  -0.620063
H  0.239728 -3.40497   2.03116 
H  1.64674 -4.25521  1.36954
H  2.6236  -1.71976  3.95708
H  0.924715 -2.11089   3.92273 
H  2.11991 -3.5035   4.05162
