30

C -1.93919  2.03086 -2.62687
O -2.96106  1.14107 -2.13797
C -2.5319    -0.0921886 -1.61465  
C -1.45391    0.0532271 -0.498341 
O -2.07597   0.465401  0.734941
C -1.42642   0.101175  1.86771 
C -0.00942062  0.569753    1.91448   
O  0.775769 -0.252555  1.06946 
C 2.11823  0.205433 0.815887
C  2.87688   -0.777736   0.0335239
O  3.14873  -2.03599   0.643708
C  2.23882  -3.14337   0.350921
H -1.41173  1.83378 -3.61708
H -1.17844  2.21727 -1.91077
H -2.57618  2.98764 -2.70963
H -2.14962  -0.743483 -2.39653 
H -3.45617  -0.591602 -1.24481 
H -1.05838  -0.923548 -0.424333
H -0.641984  0.746923 -0.755687
H -1.48379 -1.03593  1.99902
H -1.87018   0.638221  2.73073 
H 0.0912434 1.60947   1.507    
H 0.429366 0.620623 2.88401 
H 1.96101  1.14623  0.307153
H 2.59949 0.34664 1.76402
H  2.48797  -1.04592  -0.901896
H  3.8612   -0.353184 -0.186964
H  1.19927  -2.83169   0.670937
H  2.33087  -3.54664  -0.707621
H  2.54122  -3.95813   0.986947
