30

C -0.127357 -3.89384  -3.24889 
O -0.74135 -2.94318 -2.40162
C  0.0220304 -2.34822   -1.40495  
C  0.104872 -0.929734 -1.66593 
O  1.03809  -0.452212 -0.691788
C  1.5297    0.865071 -1.00358 
C  0.559463  2.0465   -0.68934 
O 0.563639 2.27752  0.736206
C 0.086602 1.16709  1.39382 
C -0.243136  1.51938   2.93263 
O -1.60576  1.2428   3.05675
C -2.23277  -0.042234  3.39352 
H  0.899283 -3.5855   -3.53457 
H -0.785661 -4.07522  -4.16641 
H -0.219663 -4.95376  -2.84738 
H  1.09865 -2.77293 -1.25346
H -0.370853 -2.43649  -0.408365
H  0.288045 -0.889968 -2.73922 
H -0.967667 -0.515504 -1.57269 
H  1.78882   0.806878 -2.15016 
H  2.54063   1.09747  -0.501873
H  0.912165  2.96479  -1.14965 
H -0.447726  1.82601  -1.00676 
H -0.767385  0.644995  0.909341
H 0.847411 0.346687 1.3423  
H 0.419116 0.938568 3.58536 
H -0.107513  2.57793   3.15909 
H -3.31893   0.175374  3.65317 
H -2.18012  -0.775945  2.54956 
H -1.71116  -0.355419  4.32493 
