30

C  1.34107 -1.26427 -4.01628
O  1.01943    0.0738712 -3.69148  
C -0.184082  0.240858 -2.9685  
C -0.324899 -0.299095 -1.51056 
O -0.82983 -1.63265 -1.31969
C -1.44119   -1.89743   -0.0835864
C -0.595704 -1.66089   1.15187 
O -0.132558 -0.300629  1.34851 
C  0.633923 -0.119415  2.47746 
C 0.883483 1.28758  2.9492  
O -0.250412  1.85391   3.48368 
C -1.35064  1.90782  2.62711
H  1.00283 -1.99521 -3.17869
H  2.39361 -1.37328 -3.99639
H  0.974539 -1.59545  -5.05231 
H -1.01619  -0.271565 -3.39819 
H -0.439255  1.30793  -2.82281 
H  0.732255 -0.437667 -1.06    
H -0.875359  0.358977 -0.832467
H -1.65548  -2.95774  -0.119446
H -2.31786  -1.23308  -0.012704
H -1.23041 -1.8965   2.04862
H  0.327673 -2.28499   1.14033 
H  0.283917 -0.778637  3.28722 
H  1.62035  -0.506804  2.24864 
H 1.68887 1.19242 3.75426
H 1.30911 1.94055 2.11296
H -0.973683  2.2624    1.67197 
H -1.84377   0.927913  2.40586 
H -2.038    2.67916  2.98476
