30

C -3.58942  2.52867 -1.32914
O -2.94799  2.92985 -0.15931
C -2.12306  1.85404  0.54213
C -0.976511  1.2884   -0.227995
O -1.2739    0.228456 -1.10241 
C -0.223069 -0.243438 -1.95881 
C  0.522789 -1.49054  -1.51934 
O  1.31964  -1.28878  -0.328549
C  0.649609 -1.56428   0.858242
C  1.54598 -1.27595  2.00001
O  2.4336  -2.27664  2.30439
C  3.4419  -2.52965  1.33163
H -4.41029  3.12643 -1.51593
H -3.87516  1.50308 -1.16602
H -3.08292  2.47313 -2.23274
H -2.83616   1.11655   0.862838
H -1.66023  2.38248  1.31861
H -0.395883  2.1543   -0.810324
H -0.170801  0.977069  0.468866
H  0.543073  0.527385 -1.94104 
H -0.610962 -0.383221 -2.96511 
H -0.212098 -2.32545  -1.53092 
H  1.24041 -1.8364  -2.27195
H -0.200549 -0.831976  0.901789
H  0.288592 -2.5819    0.869731
H  2.08385  -0.318397  1.86448 
H  0.899468 -0.946438  2.86363 
H  4.05486 -3.32174  1.69126
H  3.05598  -2.74225   0.313809
H  4.19031 -1.6936   1.36692
