30

C  4.09581 -1.38479  2.59562
O  2.97138 -1.58833  1.65108
C  3.25326  -1.12784   0.383135
C  2.18308  -1.68929  -0.532143
O  1.06067  -0.904998 -0.435622
C  0.19522  -1.17169   0.696851
C -1.26066  -0.957652  0.351811
O -1.57584   0.433871  0.381835
C -1.41198   1.22685  -0.796466
C -2.46523   2.29149  -0.923574
O -3.70716   1.46564  -0.929472
C -4.50315  1.62153 -2.04716
H  3.73471 -1.84081  3.50883
H  4.36904  -0.363253  2.67349 
H  4.98799 -2.0083   2.38069
H  4.23086   -1.45209   -0.0315925
H  3.1199    -0.0328182  0.391658 
H  2.33896 -1.63721 -1.59254
H  2.01216  -2.82873  -0.376358
H  0.463622 -0.661384  1.61872 
H  0.326763 -2.23318   0.820211
H -1.53256  -1.42351  -0.536815
H -1.92756 -1.3704   1.03143
H -0.383218  1.59798  -0.745038
H -1.56776   0.581221 -1.6624  
H -2.48054    2.99656   -0.0835133
H -2.23449  2.87912 -1.88266
H -5.31705  0.95991 -2.08889
H -4.9146   2.6528  -1.99039
H -3.89527  1.55081 -2.98568
