30

C -0.276737 -1.76451  -3.45141 
O  0.163881 -0.864965 -2.44225 
C  1.59481 -0.95109 -2.04791
C  2.09993   0.356486 -1.38149 
O  1.30715   0.402195 -0.193178
C 1.11068  1.66943  0.356683
C -0.339689  2.21303   0.222276
O -1.07351  1.62467  1.25018
C -1.3567    0.271347  0.934625
C -0.72907  -0.586312  2.06067 
O -1.13126 -1.88999  2.32946
C -2.41721 -2.05489  2.8146 
H  0.366542 -1.67979  -4.31087 
H -1.31068 -1.53255 -3.64025
H -0.243225 -2.75693  -3.03711 
H  2.17325 -1.04891 -2.97017
H  1.87417 -1.80421 -1.404  
H  3.19458   0.335099 -1.14582 
H  1.96422  1.25856 -2.1211 
H  1.83643   2.40705  -0.197413
H 1.35538 1.57819 1.3382 
H -0.207745  3.34815   0.290017
H -0.772132  2.12394  -0.786256
H -2.46722   0.144074  0.785161
H -0.974646   -0.00982274 -0.0580435 
H  0.377522 -0.599295  2.01289 
H -0.923225  -0.0883728  2.97586  
H -2.73576 -3.13868  2.79517
H -2.49283 -1.74805  3.88164
H -3.12214 -1.40014  2.27599
