30

C -2.68891   0.837588 -0.278755
O -1.40494   0.562706 -0.710942
C -1.16912  1.10479 -2.0031 
C  0.245965  0.552566 -2.49457 
O  0.272214 -0.864697 -2.71838 
C  1.25572 -1.58735 -2.05507
C  0.949774 -1.64754  -0.556557
O  1.5569   -0.610402  0.17582 
C  1.36772  -0.638253  1.57733 
C 0.0746288  0.00714656 1.94025   
O -0.0269223   0.00965652  3.35074   
C -1.32345   0.357076  3.87925 
H -2.90324   1.96227  -0.230044
H -2.74306   0.526374  0.776594
H -3.51674   0.507167 -0.840569
H -1.04086  2.186   -1.98049
H -1.87334   0.745182 -2.77075 
H  0.483504  1.10461  -3.34826 
H  0.868471  0.745012 -1.66157 
H  2.23815 -1.15496 -2.11367
H  1.14715 -2.60673 -2.44436
H -0.0901551 -1.62445   -0.41431  
H  1.34221  -2.60294  -0.225061
H  1.33793 -1.63157  1.99203
H  2.23951  -0.131346  1.97442 
H 0.105683 1.075    1.58973 
H -0.866181 -0.489234  1.64867 
H -2.23074    -0.00702637  3.37862   
H -1.41207    0.0366092  4.94384  
H -1.54296  1.51588  3.88582
