30

C  3.95507  -0.199262  1.52014 
O 2.82192 0.5248  2.04499
C  1.58298  -0.227298  2.01822 
C 0.75291   0.0307544 0.783453 
O  1.51489  -0.244688 -0.368337
C  0.953521 -0.878841 -1.45519 
C -0.0536511 -0.0710349 -2.30848  
O -1.14052  0.59562 -1.72807
C -2.35223  -0.144729 -1.61006 
C -3.0431    0.489349 -0.401654
O -2.64562  -0.287726  0.649605
C -3.57724 -1.27756  1.10749
H 4.80235  0.241786 1.96988 
H  3.98027   -0.0668858  0.459456 
H  3.84519 -1.2367   1.73003
H  1.81149 -1.2901   2.17055
H 1.1304   0.041129 2.90181 
H -0.207992 -0.530469  0.755103
H 0.454119 1.11443  0.724647
H  0.511874 -1.78909  -1.13579 
H  1.87534 -1.03086 -2.15627
H  0.555185  0.664755 -2.95412 
H -0.416263 -0.71357  -3.13211 
H -3.00968  -0.102235 -2.53504 
H -2.26556 -1.18813 -1.32876
H -2.5403    1.43486  -0.283679
H -4.13678   0.679795 -0.499869
H -4.49133  -0.927634  1.52046 
H -3.89764  -1.95993   0.348518
H -3.00523 -1.77735  1.88311
