30

C -3.33997  2.20724 -2.36444
O -3.00555   0.902577 -2.67905 
C -1.65977  0.66143 -2.72744
C -1.25596  -0.257153 -1.5968  
O -0.832486  0.4164   -0.445517
C -1.37041   0.240959  0.794367
C -0.30767   0.579916  1.84628 
O  0.710324 -0.410764  1.8949  
C  1.51901  -0.460267  0.681773
C  2.9537   -0.847599  1.09669 
O  3.18581 -2.15167  1.48611
C  2.26347 -2.68216  2.38154
H -2.93595  2.97531 -3.02274
H -2.888    2.48141 -1.32971
H -4.38779  2.29923 -2.18806
H -1.01965  1.59753 -2.75055
H -1.45211    0.0605742 -3.63343  
H -2.09325  -0.913344 -1.32239 
H -0.405135 -0.912898 -1.84779 
H -1.76786  -0.740344  1.09742 
H -2.19103   0.956081  0.823275
H 0.102267 1.50834  1.65152 
H -0.800504  0.670682  2.82174 
H  1.04375   -1.16542   -0.0137023
H 1.55378  0.602645 0.28212 
H  3.71578  -0.661547  0.301603
H  3.20415  -0.119949  1.85448 
H  2.25644 -2.15079  3.22946
H  1.23506 -2.7129   2.04191
H  2.68312 -3.64833  2.40885
