30

C  3.47207  1.63543 -1.47   
O  3.45013   0.868227 -0.277895
C  2.21426    0.294711  -0.0207319
C 1.15653  1.30612  0.234326
O  0.615928  1.79288  -0.946964
C -0.745456  1.34329  -1.19916 
C -0.955998 -0.078407 -1.58434 
O -1.14609 -0.85958 -0.44528
C -2.27259  -1.5843   -0.178207
C -2.02453  -2.56766   0.940465
O -1.86279 -2.01308  2.2548 
C -3.07251 -1.86988  2.99457
H  3.0217   2.6085  -1.48416
H  2.90547  1.00492 -2.22049
H  4.43484  1.65506 -1.91665
H  2.21245  -0.375779  0.863264
H  1.93538  -0.474027 -0.838209
H 0.362339 0.881583 0.940289
H 1.73494  2.11268  0.778607
H -1.08756  2.03362 -1.94918
H -1.37668   1.44615  -0.259566
H -1.8146   -0.145347 -2.20575 
H  0.0100013 -0.387026  -2.1064   
H -3.18185   -1.06726    0.0103802
H -2.59667 -2.13517 -1.08026
H -2.8754   -3.33284   0.862486
H -1.08501  -3.01162   0.815361
H -3.89188 -1.47292  2.41047
H -3.41642 -2.9167   3.36151
H -3.01491 -1.2004   3.92022
