30

C -2.76125  -0.058998 -5.20182 
O -2.17483   -0.0660271 -3.92542  
C -0.836019 -0.403432 -3.96615 
C -0.24484    0.0683369 -2.68077  
O -0.289541 -0.910759 -1.65352 
C -0.824719 -0.642346 -0.380274
C  0.383133 -1.06881   0.553496
O  0.275848 -0.582896  1.87737 
C  1.28702  -0.787287  2.88007 
C  0.915212 -0.278448  4.2195  
O 0.88183 1.14001 4.41457
C 2.20455 1.70332 4.34645
H -2.11187   0.612165 -5.76826 
H -3.80854   0.323507 -5.18832 
H -2.75397 -1.10589 -5.55258
H -0.255456  0.147482 -4.7269  
H -0.615072 -1.47776  -3.95981 
H  0.790799  0.384308 -2.87548 
H -0.863929  0.968134 -2.43857 
H -1.75889  -1.32639  -0.276491
H -1.18664   0.365514 -0.302914
H  0.272905 -2.16784   0.587393
H  1.35629  -0.868798  0.138576
H  1.52407 -1.85199  2.96755
H  2.17476  -0.360135  2.41404 
H -0.15515  -0.647982  4.36438 
H  1.65486  -0.733754  4.92147 
H 2.78652 1.25833 5.15019
H 2.65413 1.57687 3.32025
H 2.07331 2.79895 4.452  
