30

C -1.22352  4.70693 -1.63106
O -0.688635  3.49021  -2.06895 
C -1.16991  2.43145 -1.31783
C -0.770008  1.07486  -1.85873 
O -1.27751   0.2379   -0.881642
C -1.4714  -1.11344 -1.26478
C -0.309262 -1.95658  -0.948175
O -0.279746 -2.68399   0.214145
C  0.114665 -2.1418    1.55603 
C  1.40867 -2.74278  1.9884 
O  2.11613 -1.66534  2.52692
C  2.30359 -1.65942  3.93271
H -2.35694  4.80749 -1.78829
H -0.699034  5.54604  -2.14526 
H -1.0537    4.83789  -0.632967
H -2.28429  2.32398 -1.3043 
H -0.948133  2.52117  -0.237826
H -1.10573   0.868542 -2.88697 
H  0.315668  1.03077  -1.91752 
H -1.6486  -1.21211 -2.38177
H -2.31241  -1.36677  -0.665662
H -0.256891 -2.70621  -1.77916 
H  0.600905 -1.30548  -1.0573  
H  0.0621854 -1.07489    1.44067  
H -0.721442 -2.46532   2.21098 
H  1.2877  -3.50635  2.74973
H  2.02295 -3.18383  1.10326
H  2.36073 -2.61199  4.372  
H  3.20485 -1.00955  4.26951
H  1.40866 -1.19669  4.34464
