30

C -2.51539 -3.077   -3.21162
O -2.76387 -2.07268 -2.20646
C -2.38867 -0.8133  -2.54634
C -2.43969  0.20751 -1.37542
O -1.35407  -0.123973 -0.521268
C -1.59858   0.278006  0.80034 
C -0.478025 -0.181991  1.73941 
O 0.624247 0.595191 1.81906 
C 1.58842  0.675366 0.775918
C 2.87919   0.0446421 1.11678  
O 3.50154  0.697955 2.15515 
C 3.74584 2.08235 1.99927
H -3.41896 -3.23998 -3.83348
H -2.33282 -3.9981  -2.6317 
H -1.6561  -2.868   -3.93875
H -2.95925  -0.425741 -3.38419 
H -1.37938  -0.833067 -2.98327 
H -2.37202  1.2259  -1.86395
H -3.50642    0.0742896 -0.884788 
H -2.61196 -0.28399  1.00549
H -1.91566   1.31718   0.822875
H -1.04587 -0.40057  2.72462
H -0.162654 -1.16027   1.4142  
H  1.19218   -0.0170638 -0.0374377
H 1.51672  1.70342  0.454842
H  2.72226 -0.9909   1.42481
H 3.41337   0.0190032 0.147767 
H 2.80126 2.65583 1.9328 
H 4.21369 2.369   2.93168
H 4.26293 2.28577 1.08364
