30

C -3.05731   1.07964  -0.281176
O -1.74488   0.832563 -0.755597
C -1.50809   0.341403 -2.04406 
C -0.0482761  0.598998  -2.23465  
O  0.562433 -0.3644   -1.37174 
C  1.97325 -0.57076 -1.50232
C  2.32352  -1.68876  -0.551754
O  2.01462  -1.47778   0.804304
C  0.606675 -1.6122    1.24853 
C  0.268767 -0.22446   1.73373 
O -0.998636 -0.117028  2.42726 
C -1.32496  1.24706  2.7887 
H -3.20208   2.15027  -0.137637
H -3.16401   0.640681  0.687698
H -3.81145   0.791137 -1.11332 
H -2.09833   0.753667 -2.85884 
H -1.7294  -0.78376 -2.03651
H  0.452692  0.411306 -3.22651 
H  0.269615  1.57524  -1.96754 
H  2.56635   0.380528 -1.33087 
H  2.18     -0.847078 -2.57048 
H  1.89479  -2.57734  -0.973517
H  3.3771  -1.89633 -0.55501
H  0.00282909 -1.98656     0.472716  
H  0.653467 -2.37688   2.06986 
H 1.01422  0.160208 2.38592 
H 0.299781 0.422385 0.843779
H -0.465761  1.70838   3.25964 
H -1.71586  1.83894  1.91735
H -2.24441  1.14183  3.46032
