30

C 3.64036 1.69287 0.62158
O  2.97863   0.964434 -0.342983
C  2.06305  1.72605 -1.08416
C  0.87365   2.27942  -0.395849
O 0.04787  1.24601  0.121301
C 0.581519 0.572898 1.22604 
C -0.495964 -0.280178  1.76393 
O -0.81362  -1.34065   0.897773
C -1.22896  -0.911535 -0.436283
C -2.03333 -2.00832 -1.11356
O -3.15289  -2.18112  -0.300977
C -3.64361  -3.44216  -0.542275
H 4.34204  0.904874 1.11308 
H 2.86758 1.96191 1.43421
H 4.29944  2.46602  0.272205
H  1.7696   1.18339 -1.94744
H  2.44945  2.60692 -1.49103
H 1.15067  3.10106  0.341925
H  0.395856  2.73413  -1.29298 
H 0.885232 1.24808  1.91876 
H  1.45044   -0.0402028  0.959224 
H -0.288634 -0.853322  2.73276 
H -1.38223   0.292667  1.97436 
H -1.82115   -0.0252978 -0.378236 
H -0.390958 -0.634928 -1.13311 
H -2.42664 -1.71709 -2.11215
H -1.4607  -2.95815 -1.28597
H -2.98068  -4.20297  -0.232064
H -4.5875   -3.60721   0.104338
H -3.94816 -3.48098 -1.59288
