30

C  3.23812  1.72056 -2.0813 
O  2.86658   0.389706 -1.74262 
C  3.24264    0.0582451 -0.441148 
C 2.15462  0.306189 0.455102
O  1.48649  -0.924361  0.506469
C  0.812258 -1.26867  -0.727446
C -0.669723 -1.59913  -0.384305
O -1.54663    -0.591091    0.00357569
C -1.55168  -0.194944  1.33485 
C -2.79745   0.719056  1.53634 
O -4.00066    0.0598595  1.65302  
C -4.40033  -0.579367  0.394794
H  4.23913  1.81068 -2.63991
H  3.41996  2.28696 -1.16952
H  2.35129  2.12582 -2.56447
H  4.10974   0.615276 -0.134597
H  3.58082  -1.00841  -0.495625
H 2.59406  0.639568 1.41777 
H  1.4912     1.05056   -0.0224727
H  1.29245 -2.13159 -1.22245
H  0.895601 -0.423083 -1.51373 
H -1.08174 -1.97489 -1.30902
H -0.710896 -2.39805   0.40084 
H -1.57055  -0.913841  2.1938  
H -0.673299  0.434307  1.5574  
H -2.70508  1.05198  2.5533 
H -2.77603   1.59464   0.818149
H -5.45601  -0.407256  0.187592
H -3.811     -0.0361115 -0.427947 
H -4.06905  -1.66742   0.470815
