30

C  0.125942  2.03045  -2.90184 
O -0.819123  2.57969  -1.99228 
C -2.0324   1.96711 -1.65839
C -1.73848   0.656421 -0.909921
O -1.52945  -0.329446 -1.79877 
C -1.22273 -1.55378 -1.20147
C  0.201262 -1.60041  -0.606435
O  0.418791 -0.918073  0.588731
C -0.0971941 -1.34299    1.84803  
C  0.567622 -0.700816  2.99394 
O  1.76598 -1.42128  3.37827
C  2.93855 -1.1912   2.6851 
H  0.828279  2.78692  -3.21146 
H -0.306135  1.62238  -3.85631 
H  0.651595  1.26252  -2.31686 
H -2.56176  1.73786 -2.58982
H -2.5195    2.64917  -0.969171
H -0.97806   0.868814 -0.152649
H -2.60651   0.238756 -0.260075
H -1.06871 -2.22391 -2.14504
H -2.11215  -1.9384   -0.594813
H  0.502212 -2.63821  -0.474165
H  1.00038 -1.23511 -1.33317
H -1.14648 -1.07001  1.86577
H -0.00875876 -2.43014     2.04439   
H 0.742312 0.301584 2.61281 
H -0.0717177 -0.613219   3.88739  
H  3.5885  -1.79338  3.30109
H  2.96755 -1.52876  1.62766
H  3.18685  -0.161085  2.61305 
