30

C -3.08034 -2.26592  1.26968
O -1.97974  -2.50324   0.497826
C -2.32522  -2.63059  -0.828156
C -1.17682 -2.30495 -1.73444
O -0.912168 -0.939217 -1.62543 
C  0.177813 -0.225352 -2.19056 
C  1.40278   -0.0996793 -1.32818  
O  1.43319   1.06425  -0.466225
C 0.773995 0.77152  0.761921
C 0.399696 1.9737   1.5959  
O 1.53249 2.34462 2.42972
C 2.60189 2.99133 1.79321
H -3.62245 -1.37886  1.13092
H -2.81588 -2.26429  2.36168
H -3.82627 -3.08704  1.16054
H -2.75235 -3.62477 -1.11254
H -3.15     -1.89097  -0.925201
H -0.226628 -2.85752  -1.50184 
H -1.52683 -2.59537 -2.75216
H -0.143115  0.789315 -2.38103 
H  0.450921 -0.870361 -3.08099 
H  1.56826  -1.05258  -0.736441
H  2.25027    0.0758143 -2.01734  
H -0.218147  0.265266  0.547088
H 1.32545   0.0100496 1.42601  
H -0.0101314  2.83197    1.01624  
H -0.230099  1.61835   2.38569 
H 2.62546 4.03846 2.0458 
H 3.58748 2.66468 2.15556
H 2.65926  2.93483  0.691245
