30

C  0.928146  3.47144  -1.07397 
O  0.770893  2.4459   -0.149839
C 0.561215 2.86692  1.206   
C 0.797455 1.69795  2.09736 
O -0.41334  1.12661  2.34769
C -0.550841 -0.279259  2.60857 
C -1.51863 -0.88391  1.51263
O -0.725235 -1.80351   0.728237
C -1.2768  -2.09862 -0.60255
C -0.052774 -2.23345  -1.53784 
O -0.475355 -2.86366  -2.77261 
C  0.604728 -3.28485  -3.62713 
H  0.0927738  4.16829   -1.20733  
H  1.00005  3.10653 -2.09672
H  1.84415   4.20832  -0.944262
H -0.460528  3.22402   1.39488 
H 1.34076 3.67535 1.48213
H 1.39678 0.96673 1.54929
H 1.35754 1.95026 3.01907
H -1.05749 -0.52351  3.56221
H  0.398557 -0.806804  2.57133 
H -2.43341 -1.35447  1.8945 
H -1.74633   -0.0386114  0.866372 
H -1.81044 -3.09497 -0.54569
H -1.86731  -1.21837  -0.896533
H  0.349606 -1.25635  -1.77783 
H  0.805886 -2.77687  -1.06157 
H  1.64669 -3.06212 -3.15545
H  0.643228 -4.39795  -3.65056 
H  0.432373 -2.78686  -4.57878 
