30

C -2.88125  -0.172553 -0.505458
O -2.60431   1.05014   0.282514
C -1.79203   1.97403  -0.393292
C -0.395879  1.62735  -0.723329
O -0.437664  0.676696 -1.82446 
C  0.837469  0.255535 -2.25634 
C  1.45972  -0.833354 -1.35183 
O  1.87596  -0.363152 -0.117624
C  2.29184  -1.45049   0.783774
C  1.39265 -1.19085  2.0062 
O  0.0568792 -1.61309    1.59939  
C -0.739881 -1.63437   2.74101 
H -3.12468  -0.915082  0.225659
H -2.06471  -0.582163 -1.14403 
H -3.70868   0.144847 -1.08002 
H -1.7322    2.74487   0.285996
H -2.32011  2.37683 -1.30478
H  0.114892  2.57076  -0.974712
H 0.102905 1.07228  0.111767
H  1.52484  1.0979  -2.19635
H  0.712698 -0.173171 -3.25259 
H  0.71091 -1.62379 -1.24372
H  2.28676 -1.3612  -1.84363
H  2.15247  -2.38946   0.407704
H  3.38421 -1.36549  1.07382
H  1.54562 -1.85972  2.86679
H  1.39503  -0.115133  2.2009  
H -0.326328 -0.927451  3.43682 
H -1.75063 -1.40062  2.46657
H -0.850849 -2.61401   3.14393 
