30

C  2.128    -0.490025 -2.67256 
O  3.28009  -0.979049 -1.97542 
C  3.43603  -0.429036 -0.731796
C  2.6852   -1.17695   0.320233
O  1.35968  -0.633525  0.322101
C 1.01915  0.352892 1.28252 
C -0.202851  1.1752    0.778954
O -1.38283   0.465558  0.607037
C -2.48047    1.23847    0.0293911
C -3.79683   0.812635  0.630444
O -3.94855  -0.564136  0.493059
C -3.2505  -1.47244  1.36498
H  1.9361    0.527201 -2.49393 
H  1.24045 -1.01892 -2.38695
H  2.37647  -0.573395 -3.76413 
H  3.27968   0.685839 -0.616794
H  4.52788  -0.513171 -0.590664
H  2.63523  -2.20525  -0.113433
H  3.05641 -1.24874  1.33227
H 1.78464 1.10994 1.5605 
H  0.837955 -0.250984  2.25444 
H -0.444488  1.91806   1.59582 
H  0.164842   1.76977   -0.0217258
H -2.34688   2.33379   0.230946
H -2.43632  1.00684 -1.03434
H -3.77662  1.0912   1.70028
H -4.71239   1.24675   0.170808
H -3.50171 -2.48799  1.05248
H -2.13942 -1.39834  1.36487
H -3.49121 -1.21584  2.40755
