30

C  4.2486     0.941984  -0.0515794
O  3.01782   1.45691  -0.470668
C  1.94489   0.666725 -0.764168
C  1.55739  -0.331364  0.292126
O 1.27109  0.244543 1.51157 
C  0.169581 -0.228346  2.18951 
C -1.1534    0.270061  1.66373 
O -1.46878   -0.0702338  0.307698 
C -2.74412   0.207533 -0.116107
C -2.85425  -0.388383 -1.50741 
O -3.16555 -1.76445 -1.48065
C -2.16233 -2.6805  -1.09644
H 4.90604  1.67696  0.170736
H  4.71178   0.249644 -0.731499
H 4.04161  0.344052 0.859018
H  2.09176   0.147107 -1.68555 
H  1.11208   1.29778  -0.949178
H  0.742907 -0.920513 -0.131582
H  2.43022  -0.991816  0.405824
H 0.364619  0.0668147 3.20814  
H  0.157723 -1.33169   2.10887 
H -1.91773 -0.12899  2.31871
H -1.12045  1.35577  1.64126
H -3.56642  -0.170282  0.522631
H -2.69106   1.38324  -0.158652
H -3.74981    0.0940364 -1.94078  
H -1.93383   -0.0965675 -2.05057  
H -1.21123 -2.31855 -1.5318 
H -2.22171   -2.70027   -0.0183611
H -2.31918 -3.71912 -1.39725
