30

C -4.30421   -0.0104403 -0.601221 
O -4.29153   -1.28478   -0.0844185
C -3.89251 -1.42093  1.3012 
C -2.39182 -1.30088  1.3854 
O -2.00987    0.0151175  1.56333  
C -0.584856  0.116215  1.53438 
C -0.00509521  0.126661    0.0494932 
O  1.23434   -0.466608   0.0418262
C  2.0784   -0.322133 -1.08607 
C  3.3552    0.390431 -0.607058
O  4.16991   0.797758 -1.61851 
C  5.38088  1.42474 -1.39889
H -4.34345     0.00512335 -1.69056   
H -3.51588   0.648189 -0.239755
H -5.28678   0.476037 -0.349434
H -4.23908 -2.39587  1.68673
H -4.36461  -0.630648  2.00297 
H -1.99456 -2.05924  2.14691
H -1.939    -1.66237   0.396764
H -0.145116 -0.68496   2.12722 
H -0.391622  1.0238    2.23237 
H -0.717681 -0.405996 -0.493321
H  0.0659001  1.17344   -0.246638 
H  2.25929 -1.29748 -1.4504 
H  1.67121  0.41938 -1.78573
H  2.87529    1.3323    -0.0678261
H  3.90833   -0.204467   0.0922733
H  5.26915  2.50014 -1.06625
H  5.90652   0.927146 -0.526837
H  6.06416  1.34895 -2.28609
