30

C  3.64172   0.574763 -1.72003 
O  3.65644   1.41163  -0.558707
C 2.90932  0.933463 0.516861
C 1.4536   0.686646 0.337332
O 0.733513 1.8986   0.478923
C -0.721     1.72129   0.642253
C -1.462     0.953077 -0.428097
O -1.48752  -0.410294 -0.166453
C -2.37979  -0.80654   0.919843
C -2.29584 -2.34712  1.24361
O -2.83767  -3.25297   0.341154
C -2.49573 -3.00781 -1.05385
H  3.60424  1.2899  -2.49414
H  2.76745e+00 -1.56826e-03 -1.77580e+00
H  4.52884   -0.0888489 -1.70849  
H 3.0845  1.6892  1.32738
H  3.34966   -0.0747629  0.706869 
H  1.15334   0.193528 -0.561375
H  1.05236   -0.0427431  1.02862  
H -1.14881   2.73505   0.727921
H -0.938065  1.20295   1.57816 
H -2.45153   1.41355  -0.449319
H -1.04775  1.07535 -1.44891
H -1.94676  -0.378632  1.85149 
H -3.37242  -0.372559  0.811869
H -1.20498 -2.4287   1.25283
H -2.68983 -2.48049  2.30133
H -1.43198 -2.85462 -1.25311
H -2.76098 -3.96489 -1.52873
H -2.98743 -2.16507 -1.52098
