30

C 2.5307   1.32056  0.231758
O 2.06056  0.123363 0.743989
C  2.00963  -0.939404 -0.179765
C  1.53731  -2.21655   0.486133
O  0.171354 -2.43645   0.793088
C -0.373485 -1.63728   1.81262 
C -1.01506  -0.353415  1.30156 
O -2.19914  -0.620347  0.538895
C -2.16426  -0.493887 -0.841355
C -2.20602   0.928878 -1.35464 
O -0.893433  1.40327  -1.37135 
C -0.803144  2.8403   -1.62078 
H  3.57954   1.19753  -0.107588
H 2.38009  2.17811  0.867789
H  2.11796   1.64425  -0.719332
H  2.98915  -1.08993  -0.514206
H  1.34828  -0.815872 -1.04271 
H  1.75998  -3.01593  -0.183875
H  2.2841  -2.38465  1.35257
H  0.439626 -1.41084   2.50774 
H -1.06933 -2.34205  2.21371
H -1.41963   0.242451  2.15474 
H -0.277142  0.205798  0.746555
H -1.2973   -0.979382 -1.3369  
H -3.02446 -1.02342 -1.25777
H -2.69003   0.881523 -2.30365 
H -2.86973   1.56553  -0.716928
H -0.807333  3.4103   -0.686002
H  0.112906  3.04478  -2.25041 
H -1.62018  3.28695 -2.13915
