30

C -0.458846  3.7656   -1.52476 
O -0.99864  2.56285 -1.96227
C -0.0404298  1.52492   -1.93546  
C -0.75959  0.15475 -2.07894
O  0.0326734 -0.793889  -1.44185  
C -0.593763 -1.93491  -1.14531 
C  0.296697 -2.92792  -0.448347
O  0.244236 -2.82296   1.02295 
C  0.822266 -1.59379   1.52608 
C -0.182846 -1.19511   2.55185 
O  0.165295  -0.0291389  3.29509  
C 0.285344 1.15557  2.45128 
H  0.197608  4.32239  -2.24016 
H  0.170224  3.6472   -0.626745
H -1.31155  4.4017  -1.28037
H  0.475121  1.59134  -0.939688
H  0.735881  1.65814  -2.71566 
H -1.82711   0.288443 -1.74764 
H -0.772967 -0.097666 -3.15756 
H -0.788849 -2.50018  -2.09458 
H -1.52221  -1.92159  -0.566186
H -0.0861176 -3.89253   -0.789503 
H  1.34966 -2.85473 -0.84037
H  1.67217 -1.72325  2.23469
H  1.06433  -0.802311  0.862348
H -1.27314 -1.09217  2.25575
H -0.183223 -2.0711    3.19533 
H -0.582816  1.37954   1.82766 
H 0.260434 1.96109  3.15983 
H 1.28007 1.16486 1.95798
