30

C  1.25177  -0.417849  2.00292 
O  1.87644 -1.60168  1.55515
C  2.63733  -1.64998   0.405556
C  1.8873   -1.23275  -0.821709
O  1.5321     0.0482054 -0.998773 
C  0.883642  0.303747 -2.26334 
C -0.668547  0.303526 -2.19603 
O -1.33777  1.37657 -1.66629
C -1.50566   1.39034  -0.233955
C -2.34466   0.20687   0.306651
O -2.38856   0.391232  1.72694 
C -2.92707  -0.771826  2.32619 
H  0.369468 -0.380701  1.4066  
H 1.87749  0.427281 1.74295 
H  1.13892  -0.479307  3.08405 
H  2.9697   -2.73781   0.301184
H  3.51849  -1.00943   0.468397
H  2.63447 -1.52772 -1.61481
H  1.00839  -1.83047  -0.779261
H  1.05461 -0.4704  -2.99567
H  1.15787  1.19655 -2.71149
H -0.916749  0.214053 -3.21418 
H -0.991784 -0.651279 -1.78219 
H -0.448592  1.35223   0.150708
H -2.04345    2.31984    0.0594127
H -3.34774   0.208622 -0.163028
H -1.91259  -0.793668  0.130826
H -2.2765  -1.68909  2.1357 
H -2.89255  -0.662193  3.39886 
H -3.98603  -0.885372  2.04166 
