30

C -2.66907  -0.501741 -3.37098 
O -3.36079 -0.25354 -2.10934
C -3.09509   0.962412 -1.48827 
C -1.80087   0.781398 -0.70124 
O -0.782082  0.450259 -1.60831 
C  0.554566  0.288021 -1.17159 
C  0.665842 -1.09214  -0.478202
O  0.0501741 -1.22265    0.776986 
C  0.572335 -0.440365  1.78709 
C  2.01769  -0.803195  2.24389 
O 2.56258  0.110376 3.12117 
C  3.97071   -0.0156241  3.39572  
H -2.42291   0.402564 -3.87901 
H -3.3083  -1.22432 -3.96079
H -1.6804  -1.01163 -3.10923
H -3.84697   1.22745  -0.676931
H -2.9213   1.82186 -2.1866 
H -1.49751   1.63807  -0.138798
H -2.06415  -0.12489  -0.124317
H  0.858729  1.07823  -0.544364
H  1.12562   0.267304 -2.10921 
H  0.117386 -1.77983  -1.1098  
H  1.74537  -1.42792  -0.467321
H 0.533268 0.584465 1.53108 
H -0.119222 -0.581386  2.63774 
H  1.96223 -1.82154  2.57961
H  2.69801 -0.88277  1.33055
H 4.14985  0.513616 4.30939 
H  4.23695 -1.07257  3.5245 
H 4.64924  0.455906 2.75842 
