30

C -4.85703  -0.238499 -1.22063 
O -3.46188  -0.247398 -1.18332 
C -3.02208  1.12184 -1.11733
C -1.53834   1.23768  -0.619393
O -0.677277  0.555702 -1.5657  
C  0.652493  0.975044 -1.58588 
C  1.63334   0.307373 -0.66432 
O 1.35149  0.648761 0.661048
C 2.33447  0.324714 1.66633 
C  1.95941  -0.961494  2.36132 
O  2.24245 -2.02109  1.52317
C  2.33708 -3.28095  2.08836
H -5.21827   0.289491 -0.325029
H -5.19966 -1.29073 -1.21556
H -5.23272   0.249933 -2.12176 
H -3.61939   1.64161  -0.411821
H -3.10957  1.71446 -2.11669
H -1.32303   2.31522  -0.500901
H -1.40346   0.58783   0.333869
H  0.768118  2.01746  -1.30057 
H  1.09451   0.895723 -2.575   
H  1.51902  -0.742233 -0.873484
H  2.56745   0.581448 -1.03295 
H 3.34605  0.233697 1.21929 
H 2.31328 1.1796  2.3372 
H  2.5127  -1.15077  3.29027
H  0.928365 -1.0201    2.63062 
H  1.42214 -3.54839  2.54132
H  2.6424  -3.87769  1.26253
H  3.1163  -3.31472  2.80692
