30

C -2.66911  1.77566 -3.6113 
O -2.69459   0.398398 -3.3522  
C -2.28283   0.102192 -2.07522 
C -0.850409   0.0822938 -1.74788  
O -0.475625  1.36865  -1.26478 
C -0.241758  1.54224   0.161649
C 1.08511  0.986349 0.643727
O  1.00227  -0.359787  0.833124
C  2.09314 -1.06413  1.17091
C  1.58043 -2.23986  1.99375
O  1.24202 -1.68082  3.28176
C  1.09351 -2.65252  4.29001
H -2.9267   1.84649 -4.643  
H -1.61827  2.14453 -3.46183
H -3.29217  2.51893 -3.07375
H -2.71108 -0.92846 -1.86129
H -2.65445   0.808051 -1.26803 
H -0.662924 -0.719623 -1.05115 
H -0.170632 -0.135213 -2.63959 
H -1.00723   1.06528   0.789336
H -0.274816  2.63582   0.374133
H  1.88011   1.38154  -0.050445
H 1.29709 1.40883 1.65667
H  2.44421  -1.43522   0.213466
H  2.93312  -0.583902  1.65304 
H  0.701811 -2.69902   1.52529 
H  2.39622 -2.99952  2.05182
H  0.765205 -2.16352   5.21991 
H  0.297843 -3.39976   4.07932 
H  2.0906  -3.16843  4.4258 
