30

C  0.601972 -0.681279  4.0831  
O -0.466155 -0.397939  3.207215
C -0.102782  0.319834  2.045286
C -1.380005  0.506592  1.227006
O -0.996029  1.173383  0.043758
C -1.984344  1.253812 -0.969981
C -1.350344  1.932592 -2.190164
O -0.551352  1.058969 -2.955015
C  0.705137  0.686324 -2.41316 
C  0.662417 -0.759851 -1.911861
O  1.96718  -1.063191 -1.454146
C  2.107946 -2.341861 -0.879099
H 1.072821 0.240993 4.451365
H  0.183705 -1.232865  4.927249
H  1.36828  -1.297819  3.59228 
H  0.639359 -0.237549  1.452163
H 0.324485 1.301586 2.303291
H -2.120207  1.052001  1.831252
H -1.805597 -0.483129  0.993547
H -2.842388  1.851788 -0.623453
H -2.342883  0.249719 -1.242777
H -2.14873   2.276191 -2.858153
H -0.768155  2.803276 -1.8522  
H  1.451612  0.763364 -3.214337
H  0.999987  1.353271 -1.593108
H -0.06896  -0.861771 -1.097314
H  0.364725 -1.432184 -2.73199 
H  1.86376  -3.135381 -1.599623
H  3.151828 -2.442379 -0.575046
H  1.462729 -2.456497  0.003938
