30

C  0.875734 -0.829267  3.732887
O -0.268614 -0.530911  2.965691
C -0.046977  0.385285  1.91085 
C -1.365521  0.508893  1.150763
O -1.101432  1.318579  0.020105
C -2.059769  1.29297  -1.025094
C -1.365244  1.945849 -2.230569
O -0.503048  1.062753 -2.91401 
C  0.70277   0.697065 -2.262214
C  0.624891 -0.759144 -1.791148
O  1.72742  -0.971954 -0.928394
C  1.864328 -2.296814 -0.46437 
H 1.281152 0.071534 4.21485 
H  0.567807 -1.540139  4.502232
H  1.663316 -1.284071  3.115226
H 0.735979 0.020897 1.228079
H 0.260548 1.368656 2.29975 
H -2.138168  0.961456  1.791151
H -1.70672  -0.492373  0.846581
H -2.95702   1.868303 -0.747794
H -2.357517  0.262566 -1.265742
H -2.12122   2.254161 -2.962596
H -0.821036  2.836365 -1.882885
H  1.523011  0.805612 -2.983977
H  0.906389  1.346814 -1.402608
H -0.323231 -0.932259 -1.26075 
H  0.664769 -1.441476 -2.654514
H  2.030083 -2.995935 -1.296057
H  2.731805 -2.314706  0.198422
H  0.975527 -2.618711  0.096156
