30

C  0.587909 -0.707052  4.075045
O -0.479844 -0.369647  3.218022
C -0.093526  0.26377   2.015177
C -1.373251  0.524954  1.225867
O -0.979097  1.125774  0.007096
C -2.006096  1.293577 -0.954328
C -1.388884  1.911484 -2.215135
O -0.576568  1.016271 -2.938394
C  0.689651  0.685285 -2.391616
C  0.683858 -0.764019 -1.898454
O  1.986336 -1.02791  -1.410041
C  2.158949 -2.311432 -0.855271
H 1.147095 0.185806 4.388092
H  0.151525 -1.184347  4.954542
H  1.282825 -1.407618  3.590709
H  0.578844 -0.381185  1.427556
H 0.424706 1.214453 2.216229
H -2.04071   1.189473  1.795974
H -1.897797 -0.425826  1.044426
H -2.790189  1.965577 -0.569912
H -2.464421  0.322949 -1.199968
H -2.199076  2.204319 -2.892952
H -0.820871  2.810626 -1.929464
H  1.438786  0.788394 -3.187992
H  0.959699  1.357352 -1.567953
H -0.064916 -0.894189 -1.103991
H  0.429039 -1.440584 -2.729512
H  1.963352 -3.099194 -1.596707
H  3.197393 -2.380014 -0.524731
H  1.49529  -2.467049  0.007709
