30

C  0.433112 -0.715436  4.210838
O -0.548524 -0.355719  3.264411
C -0.049454  0.29209   2.112794
C -1.269128  0.578835  1.245307
O -0.923523  1.197245  0.024264
C -1.958695  1.24286  -0.941659
C -1.391425  1.894917 -2.208274
O -0.631662  1.005422 -2.994182
C  0.661617  0.66383  -2.524006
C  0.667958 -0.756211 -1.950942
O  2.016702 -1.055603 -1.641516
C  2.211911 -2.289008 -0.989588
H 0.968223 0.167568 4.587277
H -0.086807 -1.200729  5.03897 
H  1.163748 -1.415824  3.782216
H  0.659968 -0.355281  1.571707
H 0.467767 1.228003 2.377719
H -1.962862  1.219882  1.815206
H -1.783257 -0.378151  1.054226
H -2.804648  1.842931 -0.569042
H -2.321268  0.229344 -1.17118 
H -2.225201  2.22186  -2.840526
H -0.794861  2.774058 -1.921308
H  1.348025  0.702605 -3.379718
H  1.009159  1.373187 -1.761945
H  0.041785 -0.810312 -1.049013
H  0.267317 -1.461742 -2.695925
H  1.86256  -3.129519 -1.606029
H  3.284973 -2.393008 -0.816389
H  1.686499 -2.318096 -0.023673
