30

C  0.583428 -0.675886  4.107841
O -0.478589 -0.388514  3.226404
C -0.102662  0.307958  2.055431
C -1.373516  0.501698  1.232967
O -0.987388  1.164188  0.043734
C -1.980583  1.247704 -0.964104
C -1.353085  1.929413 -2.186032
O -0.559136  1.057148 -2.957638
C  0.702296  0.686175 -2.426396
C  0.665419 -0.758946 -1.921552
O  1.976075 -1.061899 -1.480567
C  2.123106 -2.337904 -0.901368
H 1.069498 0.242201 4.466454
H  0.155237 -1.210284  4.958185
H  1.340903 -1.311087  3.626869
H  0.631348 -0.269235  1.470975
H 0.339706 1.286185 2.300539
H -2.104132  1.100035  1.798851
H -1.822169 -0.478446  1.009589
H -2.836361  1.845664 -0.611198
H -2.341891  0.24493  -1.238026
H -2.15512   2.275193 -2.848548
H -0.768457  2.798869 -1.849206
H  1.441252  0.761914 -3.234625
H  1.004322  1.355026 -1.610466
H -0.055089 -0.858764 -1.097131
H  0.356755 -1.432919 -2.736263
H  1.867176 -3.1346   -1.614281
H  3.171115 -2.438733 -0.611952
H  1.490553 -2.447084 -0.008466
