30

C  1.040189 -1.052669  3.349803
O -0.026528 -0.806508  2.459779
C -0.148027  0.544604  2.049727
C -1.410377  0.657288  1.186181
O -1.050621e+00  1.340495e+00 -9.840000e-04
C -2.004219  1.318662 -1.049002
C -1.328887  1.884185 -2.30514 
O -0.508049  0.945148 -2.961706
C  0.709864  0.591651 -2.324323
C  0.603148 -0.809042 -1.714752
O  1.807702 -1.040142 -1.009785
C  1.801962 -2.207545 -0.218041
H  0.922794 -0.479816  4.280504
H  1.023082 -2.119581  3.580425
H  2.007621 -0.796211  2.896375
H 0.725272 0.842901 1.449555
H -0.209851  1.206816  2.927499
H -2.209151  1.199032  1.716621
H -1.774338 -0.354643  0.952431
H -2.876449  1.940717 -0.789338
H -2.350843  0.292087 -1.240204
H -2.103453  2.166842 -3.027552
H -0.755112  2.781483 -2.027434
H  1.50015   0.598327 -3.086093
H  0.973343  1.311922 -1.539582
H -0.258701 -0.858615 -1.034315
H  0.45864  -1.559164 -2.508525
H  1.697825 -3.110857 -0.836133
H  2.758243 -2.242096  0.308242
H  0.984781 -2.185268  0.515788
