30

C  0.577233 -0.672191  4.108623
O -0.480838 -0.377948  3.229923
C -0.104128  0.315153  2.056344
C -1.374851  0.507541  1.233415
O -0.988251  1.165398  0.041772
C -1.98177   1.246226 -0.966011
C -1.355373  1.926359 -2.189381
O -0.561394  1.053436 -2.96016 
C  0.701133  0.684933 -2.429862
C  0.666364 -0.758657 -1.920523
O  1.979825 -1.061527 -1.487907
C  2.129156 -2.334728 -0.903187
H 1.107475 0.207042 4.498778
H  0.140286 -1.211465  4.953037
H  1.320697 -1.324031  3.624497
H  0.629087 -0.265223  1.474028
H 0.339374 1.293391 2.298208
H -2.104611  1.108766  1.797342
H -1.824766 -0.472831  1.013584
H -2.83801   1.843967 -0.613934
H -2.342147  0.242585 -1.23803 
H -2.158052  2.270678 -2.851867
H -0.771003  2.796663 -1.854259
H  1.438559  0.758505 -3.239688
H  1.004127  1.356745 -1.61671 
H -0.048357 -0.855512 -1.090737
H  0.351368 -1.434577 -2.731188
H  1.86617  -3.134708 -1.609826
H  3.179235 -2.43595  -0.621518
H  1.503473 -2.438039 -0.004741
