30

C 0.941294 0.326111 3.572724
O -0.241498  0.515943  2.831548
C -0.716546 -0.6315    2.166468
C -1.790308 -0.217512  1.161952
O -1.2049    0.6671    0.227359
C -2.036148  1.063031 -0.847249
C -1.257589  2.082178 -1.688097
O -0.311677  1.483068 -2.544024
C  0.881255  0.99486  -1.95296 
C  0.855531 -0.534397 -1.874333
O  2.158238 -0.937166 -1.491398
C  2.308671 -2.320755 -1.278325
H  1.765221 -0.013721  2.929729
H 1.200748 1.293075 4.007762
H  0.7982   -0.406088  4.380759
H -1.168274 -1.338649  2.885451
H  0.089082 -1.171124  1.642757
H -2.619555  0.2807    1.689479
H -2.182156 -1.118115  0.662267
H -2.957933  1.533344 -0.467774
H -2.313636  0.196431 -1.467506
H -1.961432  2.615304 -2.338049
H -0.774886  2.805576 -1.014029
H  1.718703  1.298516 -2.59451 
H  1.032467  1.418499 -0.952017
H  0.112925 -0.872589 -1.137483
H  0.586782 -0.952168 -2.857631
H  2.086862 -2.894855 -2.189465
H  3.349064 -2.489709 -0.992917
H  1.651504 -2.675389 -0.470469
