30

C -1.422435  0.61836   5.730128
O -1.157199  0.017548  4.482305
C -0.980831  0.924806  3.413038
C -0.716322  0.084786  2.167089
O -0.528663  0.99191   1.097574
C -0.278955  0.395162 -0.160046
C -0.144991  1.54245  -1.172355
O -0.457276  1.12894  -2.484555
C  0.585183  0.627644 -3.292782
C  0.774403 -0.883303 -3.110574
O  1.704077 -1.285032 -4.096549
C  1.982151 -2.667323 -4.123538
H -2.34841   1.209718  5.700638
H -1.535769 -0.19036   6.454613
H -0.595742  1.271323  6.04363 
H -0.126984  1.595312  3.599131
H -1.881334  1.541107  3.263639
H -1.572949 -0.579529  1.974361
H  0.180031 -0.536742  2.318452
H -1.107788 -0.263936 -0.462851
H  0.641483 -0.209877 -0.122862
H -0.864874  2.32318  -0.899459
H  0.864976  1.976479 -1.12488 
H  0.297269  0.818093 -4.333207
H  1.532657  1.148801 -3.090403
H  1.154223 -1.112294 -2.101935
H -0.191319 -1.396341 -3.242381
H  1.075534 -3.253554 -4.328973
H  2.70491  -2.830292 -4.925238
H  2.414954 -3.007036 -3.171988
