30

C -1.028208 -1.278325  4.756893
O -0.752358 -0.272467  3.808071
C -1.335061 -0.481304  2.53713 
C -0.925863  0.703875  1.66765 
O -1.495817  0.485071  0.392771
C -1.169841  1.450943 -0.588628
C -1.740776  0.974572 -1.931008
O -0.980689 -0.035719 -2.553851
C  0.313822  0.287057 -3.025436
C  1.36503  -0.450113 -2.189572
O  2.625493 -0.067127 -2.703929
C  3.731018 -0.676086 -2.075251
H -0.648997 -2.255472  4.425953
H -0.522628 -0.991316  5.680933
H -2.107384 -1.363981  4.946994
H -2.432966 -0.531212  2.608277
H -0.97246  -1.417339  2.08398 
H 0.172414 0.757621 1.603797
H -1.295404  1.641486  2.112076
H -0.080121  1.586309 -0.654074
H -1.619467  2.424676 -0.33183 
H -2.72897   0.537126 -1.754197
H -1.849256  1.845478 -2.598272
H  0.391081 -0.042396 -4.070237
H  0.502765  1.36877  -2.989551
H  1.272623 -0.173905 -1.127612
H  1.214441 -1.53716  -2.277197
H  3.698354 -1.769672 -2.179995
H  4.627587 -0.294792 -2.56792 
H  3.771649 -0.424596 -1.005948
