30

C  0.628369 -0.726653  4.042422
O -0.461001 -0.397716  3.208931
C -0.120247  0.348585  2.062381
C -1.394369  0.530856  1.235623
O -1.001815  1.182691  0.042981
C -1.98721   1.251038 -0.973656
C -1.352914  1.923009 -2.197487
O -0.550305  1.04607  -2.954686
C  0.706264  0.681021 -2.408025
C  0.665985 -0.760405 -1.893062
O  1.971809 -1.057848 -1.434379
C  2.113642 -2.328497 -0.842182
H 1.127344 0.175478 4.423036
H  0.225655 -1.295984  4.882281
H  1.367276 -1.341524  3.509499
H  0.57588  -0.19997   1.405882
H 0.317005 1.322488 2.325635
H -2.137977  1.129683  1.784856
H -1.830995 -0.456221  1.020103
H -2.848584  1.848502 -0.63385 
H -2.341605  0.243767 -1.24004 
H -2.15102   2.25975  -2.869302
H -0.773598  2.797575 -1.864662
H  1.453395  0.751971 -3.209148
H  0.998868  1.356298 -1.593985
H -0.064003 -0.855367 -1.076427
H  0.367873 -1.440857 -2.706311
H  1.86665  -3.131806 -1.550804
H  3.15843 -2.4255  -0.54008
H  1.471205 -2.430434  0.044476
