30

C  0.602542 -0.693894  4.080704
O -0.470173 -0.395845  3.21533 
C -0.108263  0.319652  2.051399
C -1.383041  0.516057  1.237939
O -0.993447  1.173319  0.044914
C -1.983039  1.249347 -0.966777
C -1.35304   1.927487 -2.189444
O -0.554467  1.05396  -2.954847
C  0.704191  0.684964 -2.415704
C  0.665098 -0.759079 -1.907977
O  1.973591 -1.061011 -1.459926
C  2.118311 -2.336621 -0.879244
H 1.087879 0.22186  4.446374
H  0.185374 -1.242105  4.927568
H  1.35675  -1.318643  3.581572
H  0.622152 -0.245461  1.451265
H 0.332661 1.295903 2.307378
H -2.132631  1.111661  1.780232
H -1.82552  -0.467451  1.013063
H -2.841965  1.846309 -0.619761
H -2.340455  0.244286 -1.237577
H -2.153536  2.268817 -2.85608 
H -0.771435  2.799584 -1.854133
H  1.447673  0.759241 -3.219921
H  1.001203  1.355891 -1.599662
H -0.059408 -0.857345 -1.086873
H  0.360418 -1.434677 -2.722842
H  1.866588 -3.133846 -1.593059
H  3.164846 -2.436682 -0.584275
H  1.481153 -2.445681  0.010385
