30

C  0.573754 -0.669291  4.134577
O -0.492441 -0.39582   3.238335
C -0.106872  0.28709   2.064783
C -1.374593  0.491936  1.240058
O -0.980958  1.149303  0.050332
C -1.974269  1.243281 -0.956519
C -1.34607   1.932934 -2.173589
O -0.556923  1.064395 -2.954132
C  0.706283  0.688086 -2.431192
C  0.66862  -0.757873 -1.928819
O  1.986567 -1.072622 -1.518753
C  2.134141 -2.346911 -0.936072
H 0.978678 0.315481 4.410398
H  0.151141 -1.173073  5.003001
H  1.348487 -1.2904    3.670159
H  0.620794 -0.301504  1.483651
H 0.347147 1.262026 2.304398
H -2.099971  1.098142  1.804292
H -1.832543 -0.484044  1.017427
H -2.828247  1.840745 -0.598541
H -2.338333  0.243554 -1.237925
H -2.147969  2.2876   -2.831574
H -0.757433  2.797167 -1.830313
H  1.440159  0.762389 -3.244164
H  1.015734  1.355054 -1.616421
H -0.033418 -0.854164 -1.088247
H  0.335966 -1.426915 -2.738141
H  1.851667 -3.14472  -1.637633
H  3.187915 -2.457791 -0.672387
H  1.522998 -2.444057 -0.026968
