30

C  1.015411 -1.081267  3.389963
O -0.04219  -0.828438  2.491699
C -0.049039  0.480634  1.944492
C -1.3579    0.635954  1.161945
O -1.059924  1.369034 -0.012092
C -2.023536  1.32649  -1.049561
C -1.36544   1.88658  -2.317536
O -0.52499   0.95547  -2.962057
C  0.692785  0.626029 -2.311376
C  0.606558 -0.779742 -1.708273
O  1.730022 -0.935066 -0.862248
C  1.75345  -2.151281 -0.146998
H  0.968618 -0.410514  4.259507
H  0.907323 -2.113972  3.727285
H  1.993387 -0.960854  2.903682
H 0.80307  0.619998 1.262473
H 0.012401 1.221365 2.756694
H -2.122867  1.15297   1.761371
H -1.736829 -0.365049  0.904926
H -2.900197  1.9417   -0.788532
H -2.361104  0.294625 -1.227683
H -2.147831  2.140225 -3.042107
H -0.810552  2.800569 -2.056389
H  1.493242  0.656929 -3.061938
H  0.929134  1.346545 -1.518718
H -0.326762 -0.884768 -1.136414
H  0.606321 -1.539321 -2.506074
H  1.800677 -3.013987 -0.826753
H  2.649672 -2.137839  0.476823
H  0.867103 -2.25302   0.49391 
