30

C  0.33254  -0.674747  4.329107
O -0.665328 -0.412992  3.367583
C -0.21405   0.270939  2.216739
C -1.429961  0.461807  1.314678
O -0.968539  1.112329  0.145689
C -1.91838   1.229699 -0.900663
C -1.235804  1.915891 -2.093291
O -0.680577  0.998357 -3.010568
C  0.650584  0.57026  -2.803748
C  0.724458 -0.665221 -1.899773
O  2.049167 -1.154711 -2.007861
C  2.334372 -2.260083 -1.182196
H 0.779365 0.256206 4.705298
H -0.151508 -1.200178  5.154496
H  1.130093 -1.307901  3.915414
H  0.553179 -0.313983  1.683661
H 0.216332 1.249925 2.479939
H -2.191235  1.068297  1.828967
H -1.868804 -0.518351  1.072388
H -2.775686  1.835641 -0.566585
H -2.287458  0.23858  -1.204281
H -1.99022   2.485354 -2.650295
H -0.471859  2.613172 -1.719777
H  1.049473  0.302806 -3.789523
H  1.266121  1.379601 -2.384673
H  0.496871 -0.402953 -0.857514
H -0.003803 -1.418224 -2.240577
H  1.69878  -3.121793 -1.431238
H  3.380072 -2.524691 -1.351465
H  2.191816 -2.013037 -0.119911
