30

C  1.212319 -0.673243  2.889572
O  0.039398 -0.510988  2.123603
C -0.656753  0.698495  2.360534
C -1.746476  0.829252  1.299624
O -1.142523  1.312305  0.114319
C -1.954584  1.267115 -1.045782
C -1.134657  1.825846 -2.216224
O -0.321941  0.856946 -2.834465
C  0.865858  0.468948 -2.164051
C  0.667362 -0.831308 -1.37537 
O  1.952011 -1.419446 -1.248259
C  1.958857 -2.661706 -0.585512
H  0.992829 -0.656972  3.966652
H  1.633058 -1.645262  2.625641
H 1.947347 0.111955 2.665344
H 0.023937 1.560592 2.297652
H -1.117406  0.675834  3.362015
H -2.525052  1.52741   1.648234
H -2.207297 -0.155025  1.127165
H -2.857775  1.883    -0.903742
H -2.265386  0.234338 -1.26438 
H -1.823349  2.182267 -2.991565
H -0.533334  2.67484  -1.856663
H  1.621682  0.286843 -2.938421
H  1.224691  1.270469 -1.504226
H  0.234041 -0.638186 -0.384654
H -0.010533 -1.494948 -1.935569
H  1.363038 -3.409738 -1.12847 
H  2.997578 -2.995998 -0.539257
H  1.563071 -2.573634  0.43628 
