30

C -1.625996  0.585903  5.680719
O -1.173607  0.007972  4.476695
C -1.039472  0.912392  3.398832
C -0.556462  0.09744   2.202791
O -0.408959  1.003639  1.126507
C  0.019567  0.425967 -0.0915  
C  0.07412   1.555116 -1.13668 
O -0.455806  1.154255 -2.382214
C  0.434166  0.619091 -3.336088
C  0.736779 -0.862211 -3.078008
O  1.488321 -1.309517 -4.188382
C  1.833595 -2.676593 -4.160926
H -2.6211    1.036428  5.559077
H -1.683322 -0.217818  6.417277
H -0.930359  1.357049  6.040591
H -0.307485  1.701545  3.632706
H -2.002617  1.390412  3.160476
H -1.292456 -0.684973  1.960979
H  0.402261 -0.388047  2.443656
H -0.679979 -0.353608 -0.431786
H  1.009199 -0.043305  0.035724
H -0.539935  2.386986 -0.772092
H  1.104898  1.922346 -1.253385
H -0.060547  0.710037 -4.309453
H  1.375429  1.188781 -3.365543
H  1.310181 -0.987018 -2.145193
H -0.206116 -1.423954 -2.984337
H  0.938903 -3.314614 -4.1451  
H  2.403112 -2.878555 -5.070042
H  2.453693 -2.915148 -3.285281
