30

C 0.538401 0.505453 4.130829
O -0.534562  0.503219  3.217281
C -0.46336  -0.495723  2.218923
C -1.559675 -0.215531  1.192159
O -1.02704   0.66769   0.222102
C -1.924071  1.071918 -0.796534
C -1.188155  2.069148 -1.699405
O -0.32971  1.4446  -2.62679
C  0.879643  0.899166 -2.126675
C  0.793463 -0.628761 -2.069406
O  2.090091 -1.090894 -1.737721
C  2.208476 -2.490449 -1.632993
H 1.498146 0.664849 3.619636
H 0.361276 1.327784 4.826646
H  0.58993  -0.43809   4.693213
H -0.611704 -1.494721  2.662037
H  0.516035 -0.477677  1.717097
H -2.426897  0.237808  1.69532 
H -1.879752 -1.157759  0.717903
H -2.807566  1.562032 -0.356538
H -2.260885  0.20623  -1.387746
H -1.926292  2.620553 -2.293458
H -0.634103  2.780034 -1.068105
H  1.683806  1.180211 -2.819096
H  1.116288  1.297736 -1.131991
H  0.061794 -0.94767  -1.312894
H  0.474435 -1.018757 -3.048986
H  1.96123  -2.986481 -2.582518
H  3.247876 -2.705321 -1.3765  
H  1.552893 -2.8906   -0.845769
