30

C  0.543664 -0.687789  4.136543
O -0.498357 -0.379555  3.23783 
C -0.088965  0.305028  2.07161 
C -1.346724  0.522987  1.236818
O -0.970256  1.172451  0.038604
C -1.975182  1.247239 -0.957767
C -1.363334  1.920189 -2.192371
O -0.579167  1.042555 -2.96779 
C  0.691546  0.679879 -2.45333 
C  0.666173 -0.758855 -1.929893
O  1.988312 -1.059188 -1.522625
C  2.147983 -2.325271 -0.925471
H 1.042101 0.222388 4.498451
H  0.090795 -1.209668  4.981687
H  1.294657 -1.340127  3.668935
H  0.639773 -0.290722  1.498884
H 0.373186 1.27303  2.321554
H -2.068245  1.133143  1.802971
H -1.812463 -0.45188   1.022479
H -2.827354  1.846989 -0.599177
H -2.338657  0.241963 -1.219605
H -2.17397   2.261079 -2.846917
H -0.774652  2.792135 -1.869346
H  1.41625   0.746212 -3.27517 
H  1.006491  1.359669 -1.651397
H -0.030734 -0.847187 -1.084166
H  0.333446 -1.441923 -2.727378
H  1.867281 -3.133439 -1.615792
H  3.203919 -2.425635 -0.666275
H  1.542493 -2.415696 -0.011873
