30

C  0.578431 -0.669025  4.121287
O -0.484852 -0.382903  3.233503
C -0.105461  0.306355  2.060185
C -1.375219  0.503671  1.236822
O -0.986165  1.161053  0.045633
C -1.979466  1.245868 -0.961998
C -1.35211   1.928101 -2.18368 
O -0.559502  1.055857 -2.956593
C  0.70303   0.685311 -2.427823
C  0.66688  -0.758394 -1.918946
O  1.98149  -1.064624 -1.492162
C  2.129643 -2.33731  -0.906066
H 1.075238 0.258265 4.431561
H  0.137493 -1.236588  4.9405  
H  1.331867 -1.304856  3.630248
H  0.625586 -0.276972  1.477901
H 0.342196 1.28342  2.301037
H -2.103077  1.107046  1.800906
H -1.828448 -0.474986  1.016212
H -2.834843  1.844035 -0.608531
H -2.341338  0.243432 -1.236497
H -2.154304  2.275294 -2.845266
H -0.76638   2.796669 -1.846432
H  1.439621  0.758061 -3.238489
H  1.007905  1.356461 -1.614809
H -0.044448 -0.853905 -1.086093
H  0.346787 -1.433148 -2.728587
H  1.860701 -3.13764  -1.610066
H  3.180753 -2.441407 -0.62932 
H  1.508002 -2.43714  -0.004421
