30

C  0.572471 -0.674941  4.09762 
O -0.472021 -0.388462  3.228056
C -0.099014  0.308361  2.055116
C -1.370781  0.50254   1.234581
O -0.985969  1.164457  0.044683
C -1.980247  1.247457 -0.962197
C -1.353995  1.928492 -2.185138
O -0.560637  1.055855 -2.956864
C  0.701401  0.685571 -2.426589
C  0.665311 -0.759077 -1.920374
O  1.976694 -1.061587 -1.481338
C  2.124729 -2.336856 -0.900746
H 1.064594 0.240303 4.461566
H  0.147666 -1.209304  4.950999
H  1.335259 -1.312526  3.62397 
H  0.634274 -0.269527  1.4706  
H 0.344438 1.285922 2.300658
H -2.100299  1.101396  1.801354
H -1.820261 -0.477452  1.012141
H -2.835696  1.845497 -0.608719
H -2.341686  0.244475 -1.235212
H -2.156701  2.27379  -2.847073
H -0.769102  2.798196 -1.849376
H  1.439496  0.760671 -3.23567 
H  1.004138  1.355274 -1.611624
H -0.053811 -0.858132 -1.094625
H  0.35523  -1.433758 -2.733959
H  1.86737  -3.134458 -1.612123
H  3.173281 -2.43737  -0.613209
H  1.493877 -2.444808 -0.00649 
