30

C  0.586606 -0.688121  4.094768
O -0.481861 -0.385318  3.225641
C -0.111078  0.314315  2.054843
C -1.393897  0.523087  1.24735 
O -0.994667  1.173356  0.044936
C -1.984902  1.249979 -0.965492
C -1.355452  1.927954 -2.188765
O -0.559187  1.05397  -2.955991
C  0.701598  0.686077 -2.421261
C  0.664593 -0.756175 -1.908342
O  1.978556 -1.061541 -1.478812
C  2.125899 -2.333318 -0.890591
H 1.082573 0.225155 4.452266
H  0.16233  -1.223393  4.946381
H  1.333607 -1.326435  3.602067
H  0.614493 -0.263752  1.461638
H 0.338321 1.289148 2.301607
H -2.041957  1.065782  1.751503
H -1.829361 -0.46393   1.017201
H -2.844021  1.847375 -0.619553
H -2.342789  0.244984 -1.236616
H -2.156455  2.27086  -2.854025
H -0.772196  2.799056 -1.853736
H  1.441205  0.756869 -3.229353
H  1.002829  1.359962 -1.609167
H -0.047902 -0.849291 -1.076263
H  0.345551 -1.433073 -2.716614
H  1.858294 -3.134742 -1.593869
H  3.176547 -2.436868 -0.611866
H  1.502735 -2.431975  0.010135
