30

C  0.483641 -0.503159  4.268532
O -0.469353 -0.508529  3.22931 
C -0.078914  0.17202   2.053158
C -1.348583  0.427224  1.245266
O -0.949769  1.09591   0.063639
C -1.95106   1.231907 -0.930677
C -1.327498  1.952744 -2.131961
O -0.559452  1.100304 -2.950059
C  0.709126  0.698591 -2.460301
C  0.666842 -0.757853 -1.989531
O  1.994138 -1.101198 -1.636658
C  2.141217 -2.384293 -1.073395
H 0.729468 0.521709 4.579748
H  0.038239 -1.036975  5.110319
H  1.409542 -1.013257  3.967552
H  0.621736 -0.437521  1.460329
H 0.41472  1.126066 2.292913
H -2.050272  1.042651  1.829288
H -1.836619 -0.530866  1.00968 
H -2.794888  1.827127 -0.545979
H -2.328704  0.245338 -1.239247
H -2.132394  2.33932  -2.768015
H -0.723469  2.797567 -1.767721
H  1.427402  0.783069 -3.28607 
H  1.04185   1.344493 -1.637627
H -0.004603 -0.863405 -1.125448
H  0.293959 -1.402679 -2.800987
H  1.816892 -3.169214 -1.771383
H  3.202328 -2.516789 -0.852663
H  1.56449  -2.480304 -0.141992
