30

C  0.517949 -0.657353  4.196278
O -0.4994   -0.420465  3.241424
C -0.110187  0.261444  2.067499
C -1.377401  0.455515  1.238607
O -0.986708  1.122229  0.053218
C -1.981026  1.216777 -0.952767
C -1.3627    1.932511 -2.159781
O -0.564858  1.085626 -2.954977
C  0.705465  0.719477 -2.442357
C  0.688897 -0.731603 -1.953724
O  2.017106 -1.039398 -1.572512
C  2.185161 -2.315667 -0.999831
H  1.409218 -0.052322  3.994678
H  0.129568 -0.406107  5.188052
H  0.808754 -1.715997  4.183808
H  0.621592 -0.323486  1.48787 
H 0.334135 1.240536 2.303929
H -2.110911  1.051562  1.803177
H -1.82428  -0.524241  1.010327
H -2.843101  1.797222 -0.586384
H -2.331201  0.216193 -1.248358
H -2.169817  2.288024 -2.810918
H -0.783681  2.798134 -1.803875
H  1.433542  0.809968 -3.258864
H  1.011558  1.382939 -1.623386
H  0.004317 -0.842382 -1.100646
H  0.346107 -1.395023 -2.763453
H  1.894879 -3.111772 -1.700146
H  3.24462  -2.42025  -0.757218
H  1.59241  -2.422093 -0.079649
