30

C  0.597445 -0.690081  4.092239
O -0.46576  -0.3923    3.215978
C -0.079057  0.306557  2.037175
C -1.363018  0.499101  1.226162
O -0.986627  1.172845  0.039916
C -1.980772  1.250491 -0.967453
C -1.354843  1.928668 -2.192114
O -0.557174  1.05525  -2.958827
C  0.701934  0.685751 -2.42114 
C  0.662983 -0.759293 -1.916129
O  1.96874  -1.058863 -1.458657
C  2.11439  -2.339171 -0.888595
H 1.087945 0.225501 4.452177
H  0.168563 -1.224658  4.942154
H  1.351046 -1.327714  3.608485
H  0.570179 -0.190583  1.528237
H 0.32692  1.298605 2.301527
H -2.096547  1.086044  1.799112
H -1.802606 -0.48402   0.99699 
H -2.83778   1.847692 -0.61635 
H -2.339859  0.245889 -1.237626
H -2.157253  2.268737 -2.857061
H -0.773144  2.801491 -1.858917
H  1.445189  0.761882 -3.225397
H  0.999106  1.354952 -1.603776
H -0.067489 -0.860883 -1.100654
H  0.366086 -1.434355 -2.734275
H  1.874262 -3.130771 -1.612563
H  3.158392 -2.436519 -0.583926
H  1.46876  -2.460243 -0.006671
