30

C  0.481214 -0.786411  4.071212
O -0.549944 -0.247565  3.274509
C -0.172982  0.054676  1.946623
C -1.407233  0.63265   1.260384
O -1.023315  0.949203 -0.063319
C -2.051098  1.478569 -0.877936
C -1.489759  1.816615 -2.272399
O -0.713926  0.794338 -2.845536
C  0.618311  0.627368 -2.38513 
C  0.787108 -0.806096 -1.879447
O  2.129664 -0.929089 -1.446026
C  2.446082 -2.168607 -0.857221
H  1.322027 -0.084872  4.165149
H  0.055956 -0.972065  5.059347
H  0.855223 -1.732494  3.654846
H  0.159431 -0.851537  1.415308
H 0.645775 0.790822 1.924289
H -1.747152  1.531618  1.797789
H -2.222322 -0.107745  1.268074
H -2.471096  2.395681 -0.434755
H -2.86365   0.73961  -0.976589
H -2.336827  1.985383 -2.947563
H -0.905681  2.749361 -2.206209
H  1.306732  0.800673 -3.224821
H  0.861561  1.334613 -1.58368 
H  0.087324 -0.996166 -1.052793
H  0.567926 -1.518157 -2.690643
H  2.28964  -2.999541 -1.559921
H  3.500688 -2.130363 -0.576463
H  1.840331 -2.350473  0.04294 
