30

C  0.653426 -0.668208  4.062926
O -0.46204  -0.411876  3.240414
C -0.159837  0.286609  2.052231
C -1.424305  0.486647  1.224301
O -1.013635  1.155608  0.047573
C -1.988015  1.251301 -0.977506
C -1.335728  1.941179 -2.181776
O -0.529999  1.072939 -2.945499
C  0.719981  0.693497 -2.393466
C  0.66932  -0.756053 -1.902805
O  1.969674 -1.065925 -1.436965
C  2.101514 -2.346783 -0.86473 
H 1.133151 0.265423 4.388916
H  0.286145 -1.208128  4.937711
H  1.399483 -1.286024  3.543153
H  0.571844 -0.275861  1.448162
H 0.279286 1.271806 2.281345
H -2.16098   1.08585   1.781926
H -1.876669 -0.488405  0.985058
H -2.848053  1.849204 -0.635179
H -2.347458  0.252128 -1.266579
H -2.124266  2.294886 -2.856179
H -0.754975  2.806008 -1.826786
H  1.474728  0.774616 -3.186442
H  1.007824  1.35396  -1.565681
H -0.068704 -0.861596 -1.094725
H  0.37641  -1.42187  -2.729942
H  1.858524 -3.137274 -1.588973
H  3.143042 -2.452514 -0.554435
H  1.450322 -2.461144  0.013974
