30

C 0.466986 0.420074 4.264358
O -0.582486  0.418053  3.323541
C -0.371068 -0.414718  2.199528
C -1.49854  -0.149423  1.199178
O -0.992879  0.719139  0.200735
C -1.913467  1.092078 -0.809208
C -1.199113  2.059906 -1.760084
O -0.36311   1.405979 -2.687723
C  0.856691  0.873184 -2.199553
C  0.770078 -0.652253 -2.096022
O  2.07008  -1.105531 -1.765679
C  2.188872 -2.501579 -1.620998
H 1.407322 0.766717 3.813346
H 0.177014 1.106276 5.062339
H  0.627092 -0.581038  4.68992 
H -0.371763 -1.474478  2.503644
H  0.595495 -0.190307  1.723461
H -2.349587  0.313092  1.721161
H -1.837524 -1.09417   0.744295
H -2.786652  1.596018 -0.364284
H -2.263572  0.208412 -1.364862
H -1.951152  2.593008 -2.353386
H -0.630128  2.789941 -1.164893
H  1.645467  1.133051 -2.917466
H  1.116105  1.29955  -1.222202
H  0.046958 -0.947485 -1.321881
H  0.439259 -1.071083 -3.059629
H  1.930653 -3.02512  -2.552632
H  3.230987 -2.709629 -1.37001 
H  1.541991 -2.877663 -0.814973
