30

C -0.081748 -0.078885  4.391946
O  0.108209 -0.822887  3.208157
C  0.314188 -0.074444  2.030086
C -1.023394  0.272227  1.363171
O -0.708561  0.9863    0.182525
C -1.794836  1.223145 -0.697627
C -1.260518  1.993758 -1.911087
O -0.62354   1.164551 -2.855302
C  0.670201  0.683398 -2.530676
C  0.612429 -0.794058 -2.132472
O  1.954163 -1.213474 -1.9677  
C  2.106609 -2.524086 -1.472832
H -1.003793  0.517619  4.35922 
H -0.155194 -0.800269  5.208319
H 0.767146 0.592985 4.58009 
H  0.902651 -0.698943  1.348422
H 0.871871 0.851191 2.234847
H -1.644656  0.885507  2.035001
H -1.572047 -0.65311   1.130042
H -2.569753  1.824816 -0.195722
H -2.244113  0.273131 -1.024137
H -2.10547   2.456402 -2.434528
H -0.581103  2.78556  -1.560742
H  1.296751  0.783631 -3.426333
H  1.120982  1.268984 -1.71903 
H  0.048517 -0.919049 -1.197033
H  0.110127 -1.374937 -2.922197
H  1.659075 -3.264377 -2.151173
H  3.179096 -2.71264  -1.393309
H  1.646719 -2.632048 -0.479904
