30

C -1.113854  0.572236  5.72061 
O -1.259134  0.025082  4.429138
C -0.832562  0.866872  3.377085
C -1.078993  0.102932  2.079512
O -0.641164  0.939705  1.0258  
C -0.798546  0.402984 -0.27355 
C -0.30678   1.480683 -1.245809
O -0.53194   1.087585 -2.585408
C  0.566475  0.623213 -3.338136
C  0.885414 -0.848552 -3.047571
O  1.876654 -1.227826 -3.981388
C  2.291801 -2.572706 -3.89418 
H -1.703365  1.492946  5.833644
H -1.47886 -0.17673  6.42599
H -0.061336  0.796638  5.944038
H 0.238377 1.106808 3.471044
H -1.40115   1.810139  3.36888 
H -2.150585 -0.12897   1.978927
H -0.516589 -0.843722  2.090364
H -1.854647  0.170836 -0.480422
H -0.211599 -0.521921 -0.38692 
H -0.88088   2.399064 -1.068716
H  0.755606  1.692896 -1.062132
H  0.283075  0.717955 -4.392345
H  1.461351  1.237641 -3.158374
H  1.255024 -0.971234 -2.016864
H -0.02496  -1.457251 -3.165747
H  1.454385 -3.262034 -4.071578
H  3.049624 -2.721856 -4.665636
H  2.729168 -2.793412 -2.910238
