30

C 0.530738 0.498882 4.14567 
O -0.539237  0.498076  3.228489
C -0.456174 -0.487835  2.218811
C -1.554442 -0.209275  1.193422
O -1.023752  0.672423  0.220752
C -1.922546  1.073659 -0.797554
C -1.188437  2.068616 -1.704401
O -0.331913  1.441885 -2.632098
C  0.878302  0.897185 -2.133266
C  0.791905 -0.630601 -2.072406
O  2.089428 -1.092322 -1.743668
C  2.207866 -2.491698 -1.63652 
H 1.490416 0.674888 3.6399  
H 0.342922 1.309856 4.851896
H  0.589947 -0.451633  4.695357
H -0.596822 -1.492904  2.651149
H  0.523677 -0.460843  1.718238
H -2.420755  0.244915  1.697483
H -1.875425 -1.152023  0.721097
H -2.805427  1.564754 -0.357407
H -2.260139  0.206278 -1.385813
H -1.927807  2.618566 -2.298273
H -0.633103  2.781071 -1.075998
H  1.681062  1.176389 -2.828046
H  1.117184  1.298014 -1.140022
H  0.062486 -0.947769 -1.313006
H  0.469815 -1.022582 -3.050187
H  1.957719 -2.989554 -2.584325
H  3.24798  -2.706257 -1.38268 
H  1.554542 -2.890164 -0.846573
