30

C  1.076418 -0.988417  3.222907
O  1.984000e-03 -7.430790e-01  2.341816e+00
C -0.318843  0.627328  2.179272
C -1.516843  0.723694  1.228433
O -1.066147  1.327006  0.028543
C -1.986105  1.314444 -1.049645
C -1.267532  1.870971 -2.285417
O -0.470299  0.911179 -2.939099
C  0.743433  0.533151 -2.309015
C  0.601902 -0.837728 -1.642026
O  1.890851 -1.19571  -1.179469
C  1.909261 -2.325614 -0.336438
H  0.860507 -0.606015  4.230653
H  1.208732 -2.070845  3.270968
H  2.004659 -0.525941  2.860226
H 0.532122 1.175988 1.748324
H -0.563042  1.076118  3.155631
H -2.323301  1.325798  1.676933
H -1.905857 -0.286398  1.031851
H -2.858818  1.946119 -0.816239
H -2.337553  0.291254 -1.250335
H -2.018593  2.190274 -3.017494
H -0.667528  2.74384  -1.986015
H  1.513738  0.470504 -3.088334
H  1.055305  1.278163 -1.565566
H -0.106707 -0.787132 -0.803889
H  0.22585  -1.571412 -2.37281 
H  1.588203 -3.231136 -0.871251
H  2.938898 -2.456249  0.003324
H  1.255314 -2.180154  0.534182
