30

C  0.586236 -0.676763  4.105947
O -0.476619 -0.391016  3.22439 
C -0.101811  0.307422  2.054321
C -1.372788  0.499154  1.231525
O -0.987383  1.164087  0.043335
C -1.980685  1.248551 -0.964303
C -1.352624  1.930567 -2.185767
O -0.559147  1.058169 -2.957764
C  0.701908  0.686154 -2.426466
C  0.664223 -0.758898 -1.921587
O  1.973601 -1.060773 -1.476134
C  2.119757 -2.336804 -0.896731
H 1.06787  0.244078 4.463659
H  0.159375 -1.212462  4.955989
H  1.34568  -1.308935  3.624449
H  0.633746 -0.267432  1.469522
H 0.338188 1.28645  2.30063 
H -2.104629  1.094455  1.797233
H -1.818729 -0.48187   1.006475
H -2.836486  1.846186 -0.61112 
H -2.341949  0.245885 -1.238909
H -2.15401   2.277992 -2.848116
H -0.766799  2.798945 -1.848063
H  1.44085   0.761555 -3.234782
H  1.004374  1.354703 -1.610447
H -0.059027 -0.858992 -1.099587
H  0.358812 -1.433333 -2.737143
H  1.867177 -3.133535 -1.6108  
H  3.166813 -2.436699 -0.603567
H  1.484081 -2.446843 -0.006168
