30

C  0.555768 -0.652568  4.088942
O -0.479845 -0.321598  3.173655
C -0.149718  0.220233  2.106437
C -1.414899  0.49118   1.26248 
O -0.991418  1.112811  0.064861
C -1.976853  1.229925 -0.94676 
C -1.33706   1.928824 -2.15253 
O -0.560777  1.061564 -2.947257
C  0.711524  0.685382 -2.447842
C  0.682125 -0.751244 -1.918511
O  2.02019  -1.083833 -1.595156
C  2.175808 -2.310036 -0.919817
H 1.100236 0.250622 4.393873
H  0.088937 -1.113669  4.959305
H  1.261714 -1.356681  3.629107
H  0.532108 -0.391913  1.45765 
H 0.373344 1.206238 2.217449
H -2.104887  1.141889  1.822279
H -1.926559 -0.461252  1.053557
H -2.826614  1.832164 -0.586564
H -2.350179  0.237695 -1.24271 
H -2.133785  2.306001 -2.804504
H -0.735886  2.778782 -1.795709
H  1.424596  0.740124 -3.280577
H  1.045103  1.366276 -1.654009
H  0.039963 -0.820588 -1.029378
H  0.282567 -1.427064 -2.691123
H  1.805809 -3.151752 -1.52253 
H  3.24441  -2.441953 -0.737875
H  1.644286 -2.305558  0.043275
