30

C  0.583117 -0.680464  4.106534
O -0.47825  -0.391246  3.224321
C -0.100765  0.307941  2.055542
C -1.370299  0.502981  1.231212
O -0.982729  1.167805  0.043431
C -1.978594  1.249618 -0.962257
C -1.354493  1.928819 -2.187402
O -0.562214  1.054886 -2.958853
C  0.700292  0.685012 -2.42936 
C  0.664185 -0.759027 -1.921452
O  1.97403  -1.059107 -1.476203
C  2.121946 -2.334768 -0.896448
H 1.066393 0.238852 4.465941
H  0.154276 -1.21637   4.955441
H  1.341659 -1.313631  3.624927
H  0.634485 -0.26754   1.47098 
H 0.340738 1.285843 2.303606
H -2.102037  1.100046  1.796926
H -1.818282 -0.476822  1.005289
H -2.833464  1.848095 -0.608177
H -2.340531  0.246316 -1.233229
H -2.158145  2.272976 -2.848783
H -0.769121  2.799098 -1.854014
H  1.437716  0.75928  -3.23913 
H  1.003872  1.355321 -1.615241
H -0.058513 -0.857918 -1.098795
H  0.358709 -1.435382 -2.735379
H  1.870285 -3.132029 -1.610237
H  3.169171 -2.433208 -0.603422
H  1.486572 -2.445373 -0.005748
