30

C  0.505516 -0.484272  4.261686
O -0.541909 -0.23827   3.350004
C -0.12224   0.141896  2.05629 
C -1.383664  0.385386  1.230711
O -0.976498  1.07497   0.063696
C -1.966817  1.219118 -0.940204
C -1.33233   1.957894 -2.124678
O -0.546967  1.119733 -2.941381
C  0.719716  0.725784 -2.440998
C  0.685942 -0.734488 -1.981239
O  2.013756 -1.070447 -1.622837
C  2.166189 -2.353021 -1.060598
H 1.12333  0.412097 4.412056
H  0.042655 -0.765031  5.209635
H  1.150754 -1.304781  3.917298
H  0.486847 -0.650339  1.590962
H 0.481081 1.063022 2.080758
H -2.093754  0.991407  1.814931
H -1.866819 -0.570059  0.976146
H -2.81798   1.805354 -0.557915
H -2.336008  0.23488  -1.266133
H -2.131221  2.34579  -2.767444
H -0.739284  2.802751 -1.743038
H  1.445896  0.822458 -3.258471
H  1.037943  1.36869  -1.610261
H  0.010431 -0.851923 -1.121868
H  0.322921 -1.37613  -2.79964 
H  1.847148 -3.139178 -1.75964 
H  3.227451 -2.480464 -0.837599
H  1.587927 -2.452827 -0.130208
