30

C  0.571109 -0.672334  4.121661
O -0.485406 -0.383029  3.233687
C -0.100001  0.307004  2.062237
C -1.363249  0.505712  1.233633
O -0.97962   1.161959  0.043643
C -1.975814  1.246777 -0.961274
C -1.351902  1.928328 -2.185046
O -0.562303  1.05543  -2.960251
C  0.701965  0.684587 -2.435813
C  0.667145 -0.758822 -1.925963
O  1.983598 -1.065755 -1.505412
C  2.133547 -2.337944 -0.918691
H 1.05777  0.246653 4.477327
H  0.136214 -1.200815  4.972134
H  1.328173 -1.312355  3.646842
H  0.633457 -0.276426  1.483138
H 0.347161 1.283492 2.306023
H -2.11741   1.082269  1.795274
H -1.846001 -0.464473  1.028444
H -2.829868  1.845232 -0.6052  
H -2.338759  0.244279 -1.234011
H -2.156012  2.275819 -2.844135
H -0.764621  2.796645 -1.849859
H  1.435586  0.756487 -3.249232
H  1.010127  1.35615  -1.624374
H -0.040181 -0.853442 -1.089624
H  0.342673 -1.433727 -2.733731
H  1.860356 -3.138787 -1.620463
H  3.185938 -2.442686 -0.64711 
H  1.516338 -2.436227 -0.013831
