30

C -2.110000e-03 -7.714600e-02  4.413228e+00
O -2.820000e-04 -8.205820e-01  3.214407e+00
C  0.246699 -0.092531  2.029477
C -1.078551  0.25872   1.341633
O -0.74594   0.979135  0.169763
C -1.817199  1.215558 -0.728669
C -1.264488  1.993926 -1.928855
O -0.606312  1.171973 -2.864949
C  0.683403  0.695188 -2.518719
C  0.625179 -0.784475 -2.128831
O  1.965619 -1.198791 -1.941641
C  2.114773 -2.511631 -1.451805
H -0.806098  0.671712  4.429177
H -0.16446  -0.78924   5.224958
H 0.959008 0.432099 4.56815 
H  0.843236 -0.727357  1.363754
H 0.803287 0.832687 2.234516
H -1.7071    0.867926  2.010384
H -1.625204 -0.66429   1.095643
H -2.603486  1.811835 -0.238163
H -2.256645  0.265242 -1.067474
H -2.101923  2.454858 -2.465707
H -0.595402  2.787411 -1.562779
H  1.325953  0.802655 -3.402126
H  1.116381  1.278853 -1.696065
H  0.044931 -0.916683 -1.204467
H  0.140055 -1.36366  -2.93044 
H  1.682728 -3.249774 -2.142416
H  3.18645  -2.696193 -1.353999
H  1.637508 -2.627425 -0.467968
