30

C -1.548234  0.588071  5.696835
O -1.146641  0.007762  4.476057
C -1.016507  0.917138  3.401911
C -0.588941  0.099216  2.186917
O -0.447608  1.009645  1.113378
C -0.070131  0.429122 -0.121341
C -0.025256  1.569603 -1.152257
O -0.454891  1.14748  -2.429063
C  0.510154  0.621709 -3.314044
C  0.739384 -0.877998 -3.089617
O  1.57701  -1.309959 -4.143027
C  1.871181 -2.68919  -4.141395
H -2.532935  1.067929  5.606866
H -1.608061 -0.219968  6.428446
H -0.820809  1.335863  6.04285 
H -0.256743  1.683739  3.621749
H -1.972038  1.423644  3.193564
H -1.352097 -0.66149   1.960264
H  0.362697 -0.413404  2.397373
H -0.81689  -0.315086 -0.440832
H  0.905736 -0.073573 -0.030359
H -0.734779  2.340303 -0.828209
H  0.978831  2.015494 -1.200575
H  0.118667  0.765795 -4.327532
H  1.465571  1.160533 -3.227333
H  1.217727 -1.05949  -2.113689
H -0.226153 -1.407767 -3.107024
H  0.957701 -3.292882 -4.235737
H  2.51673  -2.877235 -5.00136 
H  2.397335 -2.985003 -3.222795
