30

C -0.452785  0.012466  5.284604
O -1.072267 -0.188288  4.033842
C -0.549904  0.595874  2.980565
C -1.352886  0.241488  1.732456
O -0.81899   1.012882  0.673246
C -1.434237  0.812933 -0.586161
C -0.705426  1.722324 -1.589312
O -0.692248  1.137047 -2.878363
C  0.521513  0.576028 -3.327776
C  0.859209 -0.737101 -2.61104 
O  2.002134 -1.255895 -3.262742
C  2.48152  -2.473764 -2.738028
H -0.560181  1.053029  5.62177 
H -0.951312 -0.648784  5.995893
H  0.616684 -0.23821   5.246262
H 0.516151 0.374791 2.812994
H -0.652308  1.670722  3.198178
H -2.417009  0.474331  1.892558
H -1.259264 -0.835233  1.52128 
H -2.506015  1.059786 -0.538912
H -1.339802 -0.237806 -0.901331
H -1.227442  2.684094 -1.671302
H  0.314441  1.909071 -1.226919
H  0.388627  0.371738 -4.395615
H  1.355151  1.284265 -3.20576 
H  1.068909 -0.55593  -1.545057
H  0.010057 -1.434972 -2.68697 
H  1.726089 -3.268227 -2.816594
H  3.357258 -2.751233 -3.32781 
H  2.774343 -2.367428 -1.683937
