30

C 0.980668 0.54472  2.192936
O -0.17372   0.151912  2.913917
C -0.983624 -0.835708  2.347394
C -1.872278 -0.389528  1.159838
O -1.245511  0.636363  0.414195
C -1.974862  1.073059 -0.718721
C -1.123135  2.100636 -1.473719
O -0.154385  1.508094 -2.311086
C  1.015113  1.00391  -1.692309
C  0.963291 -0.523127 -1.58329 
O  2.107606 -0.909955 -0.843402
C  2.23855  -2.299725 -0.645828
H 0.764666 1.392892 1.533831
H 1.731423 0.850102 2.928027
H  1.382151 -0.280674  1.593925
H -1.666384 -1.154316  3.147826
H -0.41133  -1.734618  2.057028
H -2.837218 -0.01976   1.546633
H -2.077782 -1.264481  0.521952
H -2.921212  1.54344  -0.405015
H -2.208739  0.226016 -1.381833
H -1.777441  2.683147 -2.13296 
H -0.651805  2.78011  -0.748097
H  1.872144  1.291795 -2.31479 
H  1.150758  1.436048 -0.69251 
H  0.044876 -0.839442 -1.069319
H  0.972387 -0.975182 -2.587372
H  2.319239 -2.834009 -1.60288 
H  3.152306 -2.455637 -0.069074
H  1.384259 -2.706081 -0.085277
