30

C -1.144106  0.586882  5.729015
O -1.26058   0.028726  4.439339
C -0.841802  0.874354  3.387225
C -1.054151  0.097041  2.091555
O -0.623986  0.937898  1.037912
C -0.755614  0.391063 -0.25975 
C -0.280621  1.475439 -1.233308
O -0.526052  1.091027 -2.571502
C  0.559217  0.623966 -3.341422
C  0.878265 -0.849202 -3.058343
O  1.854368 -1.229309 -4.007585
C  2.267755 -2.575241 -3.92859 
H -1.756969  1.493711  5.829289
H -1.499413 -0.166499  6.434647
H -0.100074  0.837997  5.963544
H 0.221836 1.140641 3.492397
H -1.432808  1.803533  3.366425
H -2.118569 -0.161217  1.979714
H -0.469366 -0.835709  2.115025
H -1.804011  0.133944 -0.476668
H -0.147087 -0.521233 -0.361901
H -0.855118  2.390539 -1.040932
H  0.783763  1.69098  -1.065261
H  0.259689  0.721208 -4.39092 
H  1.458684  1.2354   -3.174683
H  1.263009 -0.974937 -2.033552
H -0.035399 -1.455283 -3.164047
H  1.426246 -3.262442 -4.094474
H  3.013626 -2.724881 -4.711502
H  2.719279 -2.798395 -2.951627
