30

C  0.509152 -0.686902  4.178101
O -0.530229 -0.374408  3.27776 
C -0.112534  0.28029   2.097195
C -1.366494  0.51819   1.260681
O -0.942739  1.148065  0.067338
C -1.931144  1.263212 -0.93922 
C -1.360771  1.914029 -2.20171 
O -0.59514   1.027328 -2.985561
C  0.687079  0.6721   -2.494916
C  0.674235 -0.757124 -1.945453
O  2.012817 -1.064044 -1.6015  
C  2.187344 -2.309224 -0.966084
H 1.027292 0.219613 4.521049
H  0.049452 -1.183756  5.034563
H  1.244954 -1.362823  3.719916
H  0.597627 -0.342517  1.530057
H 0.373948 1.241104 2.327167
H -2.075043  1.15492   1.812659
H -1.85589  -0.444244  1.045481
H -2.768505  1.882587 -0.575045
H -2.330271  0.268533 -1.196004
H -2.199058  2.230942 -2.832011
H -0.769134  2.799498 -1.921816
H  1.391745  0.722417 -3.335007
H  1.0214    1.366557 -1.713389
H  0.021469 -0.824081 -1.063438
H  0.294583 -1.449724 -2.713203
H  1.85583  -3.138048 -1.607672
H  3.254678 -2.417765 -0.762908
H  1.633356 -2.354726 -0.017008
