30

C  0.43851  -0.865852  4.035292
O -0.550196 -0.204157  3.27845 
C -0.23857  -0.047049  1.909043
C -1.405692  0.705038  1.276022
O -1.083441  0.875232 -0.089782
C -2.036116  1.594584 -0.845692
C -1.562823  1.733452 -2.313633
O -0.788163  0.660458 -2.781629
C  0.569125  0.592061 -2.370829
C  0.835426 -0.820712 -1.851351
O  2.182474 -0.850234 -1.415916
C  2.58205  -2.064346 -0.824816
H  1.389649 -0.315346  4.018951
H  0.07132  -0.918412  5.062004
H  0.613514 -1.884545  3.661238
H -0.114085 -1.025474  1.417876
H 0.690767 0.528917 1.777395
H -1.536073  1.678039  1.774918
H -2.334986  0.125788  1.392855
H -2.191531  2.600746 -0.424367
H -3.002889  1.063358 -0.819711
H -2.449349  1.783943 -2.956294
H -1.006863  2.680153 -2.421545
H  1.219963  0.798115 -3.233496
H  0.792322  1.321779 -1.583905
H  0.147613 -1.045113 -1.022882
H  0.664306 -1.555632 -2.653585
H  2.487454 -2.904297 -1.52787 
H  3.630081 -1.952374 -0.539203
H  1.986213 -2.288122  0.072483
