30

C -1.116214  0.57556   5.721272
O -1.258697  0.027537  4.429853
C -0.831863  0.869474  3.378026
C -1.075106  0.104481  2.080449
O -0.636924  0.941372  1.026958
C -0.792539  0.404261 -0.272126
C -0.301542  1.482051 -1.244712
O -0.528847  1.089553 -2.584293
C  0.567483  0.622    -3.338073
C  0.882523 -0.850786 -3.048491
O  1.872078 -1.232223 -3.983203
C  2.283568 -2.578297 -3.897083
H -1.707341  1.495401  5.832971
H -1.481103 -0.173626  6.426477
H -0.064386  0.801727  5.946176
H 0.238547 1.111166 3.473509
H -1.401947  1.811828  3.36847 
H -2.146142 -0.129237  1.978429
H -0.51117  -0.841271  2.092639
H -1.847866  0.170386 -0.480399
H -0.204352 -0.520284 -0.384728
H -0.875421  2.400392 -1.066731
H  0.761132  1.693944 -1.062796
H  0.283287  0.717921 -4.391969
H  1.464348  1.233758 -3.159062
H  1.252524 -0.975076 -2.01812 
H -0.029589 -1.456935 -3.166389
H  1.444134 -3.265202 -4.074343
H  3.040467 -2.72907  -4.66913 
H  2.720971 -2.800806 -2.913562
