30

C -0.724612  0.274667  5.517884
O -1.18829  -0.07249   4.232233
C -0.666862  0.715115  3.181017
C -1.291743  0.191118  1.891419
O -0.760141  0.969987  0.836489
C -1.228464  0.631861 -0.456   
C -0.547477  1.600656 -1.431867
O -0.634576  1.108555 -2.75657 
C  0.539847  0.601184 -3.350154
C  0.900658 -0.793405 -2.823653
O  1.98487  -1.242352 -3.612555
C  2.466234 -2.526382 -3.283855
H -0.993734  1.308958  5.774428
H -1.204061 -0.406666  6.223321
H 0.366346 0.164135 5.593143
H 0.429801 0.627277 3.126485
H -0.924568  1.7774    3.316238
H -2.387419  0.288185  1.939536
H -1.04115  -0.873108  1.760138
H -2.322896  0.737159 -0.508995
H -0.964884 -0.4067   -0.708362
H -1.061989  2.569782 -1.405967
H  0.496989  1.747645 -1.125792
H  0.336558  0.530012 -4.424237
H  1.389845  1.283203 -3.197432
H  1.186726 -0.746347 -1.760948
H  0.03368  -1.465816 -2.922547
H  1.68677  -3.290628 -3.411661
H  3.29318  -2.73942  -3.963925
H  2.831374 -2.563587 -2.24779 
