30

C  0.497756 -0.247551  4.323417
O -0.552735 -0.065999  3.400422
C -0.153302 -0.051723  2.045525
C -1.400306  0.224234  1.201334
O -0.984016  0.996507  0.089455
C -1.960291  1.199968 -0.91742 
C -1.306734  2.00114  -2.049811
O -0.507298  1.207206 -2.896866
C  0.747832  0.780913 -2.39385 
C  0.701206 -0.704296 -2.023714
O  2.016707 -1.062275 -1.642072
C  2.153598 -2.379273 -1.16164 
H 1.239163 0.560259 4.24903 
H  0.051422 -0.235346  5.319559
H  1.006117 -1.209536  4.166955
H  0.298672 -1.01729   1.76356 
H 0.593115 0.734246 1.850978
H -2.129699  0.783702  1.807817
H -1.869896 -0.71426   0.870024
H -2.815201  1.766851 -0.514708
H -2.327784  0.2369   -1.303332
H -2.094666  2.42338  -2.68435 
H -0.720269  2.823842 -1.613594
H  1.492142  0.924745 -3.187771
H  1.048591  1.371352 -1.518933
H -0.00239  -0.872602 -1.19583 
H  0.366258 -1.29569  -2.890508
H  1.862676 -3.117332 -1.922659
H  3.206641 -2.520039 -0.909607
H  1.5427   -2.542032 -0.26139 
