30

C  0.290538 -0.720537  4.343508
O -0.694056 -0.458403  3.3685  
C -0.234475  0.254949  2.239103
C -1.437309  0.442466  1.318931
O -0.96462   1.115779  0.167641
C -1.900901  1.246525 -0.889466
C -1.19205   1.912154 -2.079541
O -0.728182  0.972747 -3.026713
C  0.601963  0.511207 -2.913494
C  0.746226 -0.605105 -1.872952
O  2.02642  -1.17483  -2.080054
C  2.361577 -2.20343  -1.177332
H 0.713564 0.21092  4.74511 
H -0.199106 -1.269826  5.149831
H  1.106814 -1.331653  3.933204
H  0.552164 -0.306353  1.708843
H 0.174307 1.235851 2.528436
H -2.215412  1.031161  1.828662
H -1.858616 -0.539858  1.055136
H -2.750168  1.868997 -0.565394
H -2.285258  0.26129  -1.192783
H -1.911037  2.552207 -2.606463
H -0.3699    2.540091 -1.707722
H  0.871235  0.107122 -3.896115
H  1.288065  1.337427 -2.674044
H  0.66614  -0.204081 -0.853083
H -0.047501 -1.354666 -2.020296
H  1.666142 -3.050938 -1.258845
H  3.368284 -2.53925  -1.433971
H  2.355163 -1.841961 -0.138616
