30

C  0.587348 -0.683466  4.096936
O -0.484704 -0.394046  3.227747
C -0.124077  0.294882  2.054198
C -1.3884    0.502312  1.232953
O -0.996129  1.161959  0.044353
C -1.98561   1.247336 -0.966959
C -1.353107  1.929528 -2.186055
O -0.556821  1.057449 -2.955361
C  0.703578  0.68737  -2.421051
C  0.666402 -0.757002 -1.914095
O  1.978311 -1.061021 -1.477504
C  2.12388  -2.332681 -0.888483
H 1.079234 0.235758 4.444592
H  0.168029 -1.213349  4.954282
H  1.3365   -1.321896  3.607705
H  0.648975 -0.237507  1.469653
H 0.386838 1.252818 2.262057
H -2.113334  1.10723   1.799392
H -1.847134 -0.473128  1.00888 
H -2.842107  1.845751 -0.616678
H -2.34673   0.245077 -1.243076
H -2.152552  2.276334 -2.851154
H -0.76918   2.798364 -1.846388
H  1.443987  0.761888 -3.228058
H  1.00391   1.357762 -1.605739
H -0.05105  -0.854814 -1.08684 
H  0.353848 -1.431565 -2.726838
H  1.861009 -3.134392 -1.593204
H  3.173123 -2.435009 -0.604095
H  1.495969 -2.431942  0.008851
