30

C  0.730814 -0.659664  4.005034
O -0.437156 -0.437239  3.249449
C -0.215918  0.263836  2.046602
C -1.474743  0.469463  1.213084
O -1.041812  1.149759  0.051516
C -1.996259  1.256609 -0.99105 
C -1.318516  1.953927 -2.176886
O -0.499092  1.089648 -2.930419
C  0.73743   0.70144  -2.354429
C  0.672661 -0.753666 -1.88223 
O  1.956775 -1.066999 -1.375571
C  2.072201 -2.355248 -0.816329
H 1.203395 0.288025 4.299651
H  0.430245 -1.20561   4.9012  
H  1.461648 -1.259169  3.443658
H  0.513377 -0.281508  1.421766
H 0.216578 1.256819 2.261183
H -2.218996  1.065686  1.764307
H -1.927524 -0.500755  0.954424
H -2.860899  1.854445 -0.660473
H -2.352952  0.260885 -1.294976
H -2.092639  2.314039 -2.864439
H -0.743505  2.815014 -1.803907
H  1.510581  0.790834 -3.128559
H  1.007007  1.351215 -1.512219
H -0.092501 -0.869038 -1.101161
H  0.409177 -1.410697 -2.726115
H  1.85719  -3.136385 -1.559311
H  3.102501 -2.462521 -0.471067
H  1.390941 -2.483142  0.037288
