30

C  0.575754 -0.671048  4.127773
O -0.489299 -0.393932  3.235548
C -0.106095  0.292661  2.06278 
C -1.37457   0.494881  1.2386  
O -0.982721  1.153356  0.048921
C -1.975905  1.244448 -0.958309
C -1.347837  1.931917 -2.176696
O -0.557393  1.062386 -2.954866
C  0.70536   0.68746  -2.429764
C  0.667999 -0.758376 -1.927014
O  1.984273 -1.070244 -1.509491
C  2.131848 -2.345207 -0.92825 
H 1.001075 0.298394 4.425579
H  0.152108 -1.183149  4.991551
H  1.34667  -1.294911  3.658974
H  0.623212 -0.292946  1.480727
H 0.344996 1.268365 2.304068
H -2.101173  1.099299  1.803179
H -1.830348 -0.482103  1.015896
H -2.830406  1.842055 -0.601807
H -2.339191  0.243869 -1.237674
H -2.149765  2.284213 -2.835909
H -0.760264  2.797558 -1.835151
H  1.440572  0.762299 -3.241479
H  1.012816  1.354832 -1.61459 
H -0.038544 -0.855689 -1.090338
H  0.341186 -1.428517 -2.737804
H  1.855883 -3.142477 -1.633005
H  3.184303 -2.453637 -0.658359
H  1.515467 -2.445755 -0.023071
