30

C  0.590505 -0.694683  4.086136
O -0.481293 -0.385802  3.223195
C -0.114875  0.320198  2.054828
C -1.403913  0.533165  1.253913
O -0.998079  1.178098  0.045144
C -1.986949  1.251746 -0.966312
C -1.356464  1.92775  -2.190292
O -0.559027  1.05276  -2.955142
C  0.701028  0.685831 -2.418069
C  0.663285 -0.755367 -1.902256
O  1.977407 -1.061041 -1.473348
C  2.123979 -2.331415 -0.881948
H 1.088644 0.216044 4.447087
H  0.169326 -1.234774  4.936245
H  1.334953 -1.33056   3.586483
H  0.609602 -0.253544  1.456509
H 0.333442 1.294639 2.30547 
H -2.010302  1.042795  1.723921
H -1.828098 -0.45921   1.019151
H -2.847373  1.849143 -0.623452
H -2.343615  0.245841 -1.236069
H -2.156894  2.269134 -2.857028
H -0.773913  2.799701 -1.856226
H  1.44162   0.754799 -3.225419
H  1.001332  1.361425 -1.607053
H -0.048471 -0.846292 -1.069327
H  0.342929 -1.433536 -2.708945
H  1.85472  -3.134405 -1.58281 
H  3.174815 -2.435417 -0.604083
H  1.501691 -2.427021  0.019717
