30

C  0.577378 -0.679185  4.106332
O -0.481786 -0.388917  3.227892
C -0.103528  0.305243  2.055743
C -1.373736  0.500601  1.232746
O -0.986062  1.160745  0.042728
C -1.979632  1.245843 -0.964672
C -1.35275   1.929463 -2.185827
O -0.559758  1.058272 -2.959521
C  0.702496  0.686968 -2.430576
C  0.66611  -0.757774 -1.924664
O  1.979818 -1.063971 -1.495158
C  2.127996 -2.338932 -0.913997
H 1.054669 0.231736 4.501032
H  0.158441 -1.168556  4.990275
H  1.334532 -1.322061  3.640354
H  0.629272 -0.274589  1.472546
H 0.340946 1.282629 2.299966
H -2.103145  1.101258  1.797725
H -1.82445  -0.478881  1.010627
H -2.83528   1.843193 -0.610507
H -2.34094   0.243433 -1.239967
H -2.155164  2.276798 -2.847062
H -0.767444  2.798039 -1.847867
H  1.439712  0.761525 -3.240507
H  1.006605  1.356495 -1.615953
H -0.047295 -0.855437 -1.093815
H  0.348506 -1.43113  -2.736444
H  1.862506 -3.13663  -1.622276
H  3.178371 -2.442637 -0.63434 
H  1.503624 -2.443542 -0.014793
