30

C -0.392869 -0.371401  4.160651
O  0.659504 -0.524651  3.233812
C 0.641502 0.223177 2.034516
C -0.753594  0.510442  1.473628
O -0.534371  1.121872  0.215246
C -1.694808  1.322121 -0.574805
C -1.263273  1.984281 -1.889175
O -0.742515  1.067896 -2.823551
C  0.56938   0.580056 -2.595531
C  0.52824  -0.859731 -2.075752
O  1.872397 -1.298386 -2.017775
C  2.05733  -2.561492 -1.420778
H -1.337807 -0.786335  3.785004
H -0.097087 -0.929343  5.052391
H -0.549566  0.680423  4.438845
H  1.183935 -0.378827  1.293259
H 1.199141 1.165305 2.159682
H -1.324188  1.185182  2.130915
H -1.320357 -0.426593  1.354142
H -2.405516  1.980734 -0.049908
H -2.192547  0.363018 -0.783322
H -2.144311  2.433413 -2.362525
H -0.534011  2.777953 -1.666955
H  1.10055   0.593778 -3.555919
H  1.112525  1.215641 -1.884256
H  0.063923 -0.896402 -1.079859
H -0.064512 -1.487884 -2.759549
H  1.528584 -3.349607 -1.9756  
H  3.129208 -2.768424 -1.437574
H  1.705124 -2.566216 -0.379238
