30

C  0.569265 -0.662086  4.129894
O -0.485873 -0.385145  3.236385
C -0.101063  0.302277  2.063277
C -1.361344  0.488201  1.227536
O -0.979038  1.150663  0.044442
C -1.974705  1.241911 -0.960875
C -1.349527  1.929018 -2.180761
O -0.55983   1.059327 -2.95946 
C  0.703957  0.685513 -2.435942
C  0.668432 -0.760561 -1.933732
O  1.983489 -1.068502 -1.509721
C  2.132523 -2.343887 -0.929682
H 1.04766  0.262282 4.48282 
H  0.134951 -1.189519  4.981313
H  1.332968 -1.298823  3.661314
H  0.637041 -0.280192  1.488658
H 0.340604 1.281849 2.303845
H -2.149392  1.132652  1.832529
H -1.822815 -0.486286  1.012726
H -2.827481  1.839686 -0.600807
H -2.339001  0.241467 -1.238792
H -2.152963  2.28008  -2.838768
H -0.762021  2.795385 -1.840976
H  1.43833   0.761685 -3.248287
H  1.01152   1.352669 -1.620646
H -0.042048 -0.860082 -1.100598
H  0.347581 -1.431608 -2.746145
H  1.863146 -3.140978 -1.637165
H  3.183917 -2.448952 -0.654413
H  1.511728 -2.448043 -0.027949
