30

C  0.310743 -0.698576  4.336441
O -0.681884 -0.429936  3.371395
C -0.224253  0.260878  2.227254
C -1.435397  0.458598  1.320194
O -0.966868  1.11364   0.156629
C -1.909673  1.234757 -0.895808
C -1.21554   1.913478 -2.086424
O -0.703596  0.986171 -3.020312
C  0.628095  0.542353 -2.859956
C  0.734212 -0.637742 -1.887594
O  2.039601 -1.16402  -2.046872
C  2.350647 -2.229545 -1.17915 
H 0.756355 0.229613 4.72081 
H -0.178056 -1.228772  5.155955
H  1.10993  -1.329794  3.922942
H  0.545222 -0.321231  1.694255
H 0.205715 1.237761 2.498857
H -2.197854  1.064209  1.833719
H -1.875076 -0.519475  1.071118
H -2.765065  1.84601  -0.566449
H -2.283271  0.245576 -1.199931
H -1.954863  2.51624  -2.628566
H -0.42288   2.577833 -1.713518
H  0.963744  0.208134 -3.848698
H  1.281322  1.36249  -2.526991
H  0.578432 -0.307867 -0.851266
H -0.028599 -1.392821 -2.135632
H  1.683476 -3.087905 -1.342367
H  3.378622 -2.528048 -1.394305
H  2.276768 -1.92201  -0.125712
