30

C  0.4982   -0.323114  4.310912
O -0.551301 -0.11997   3.391202
C -0.141862  0.004602  2.045292
C -1.394915  0.274321  1.210343
O -0.981727  1.021003  0.080375
C -1.96281  1.20631 -0.92551
C -1.315413  1.9881   -2.074858
O -0.521022  1.179937 -2.913036
C  0.73837   0.764464 -2.411682
C  0.696402 -0.713025 -2.011323
O  2.016932 -1.063648 -1.640305
C  2.159014 -2.368302 -1.128678
H 1.206262 0.517317 4.301315
H  0.043576 -0.398978  5.300468
H  1.046984 -1.250314  4.093204
H  0.357802 -0.916662  1.702359
H 0.565993 0.837575 1.911051
H -2.11377   0.851149  1.813263
H -1.874012 -0.667635  0.903609
H -2.816142  1.779629 -0.528656
H -2.331386  0.236402 -1.292696
H -2.106949  2.399856 -2.711819
H -0.726383  2.817892 -1.655844
H  1.475972  0.892696 -3.214471
H  1.045782  1.37281  -1.551423
H  0.004069 -0.864511 -1.170835
H  0.349837 -1.321468 -2.861591
H  1.85534  -3.124914 -1.866124
H  3.21554  -2.504711 -0.889128
H  1.561625 -2.50681  -0.215392
