30

C  0.579504 -0.673887  4.113074
O -0.480412 -0.385348  3.228905
C -0.099239  0.309274  2.057023
C -1.371485  0.502565  1.234431
O -0.984969  1.162792  0.044   
C -1.978949  1.246594 -0.963074
C -1.352663  1.928807 -2.185329
O -0.559692  1.056863 -2.958247
C  0.702505  0.685912 -2.428914
C  0.666124 -0.758719 -1.922682
O  1.979025 -1.063763 -1.489896
C  2.127109 -2.339051 -0.909431
H 1.064725 0.24553  4.469636
H  0.14858  -1.205627  4.963565
H  1.336947 -1.310732  3.634567
H  0.62309  -0.281618  1.473383
H 0.330256 1.290692 2.308306
H -2.101394  1.10259   1.799402
H -1.821099 -0.477488  1.012698
H -2.834507  1.844319 -0.609293
H -2.340343  0.243842 -1.237019
H -2.155376  2.275089 -2.846751
H -0.767467  2.797971 -1.848683
H  1.439937  0.76047  -3.238653
H  1.006299  1.355593 -1.614307
H -0.049248 -0.856654 -1.093561
H  0.351019 -1.43262  -2.734983
H  1.864465 -3.136439 -1.61912 
H  3.176841 -2.44178  -0.627012
H  1.500425 -2.445173 -0.012014
