30

C 0.58755  0.528444 4.048113
O -0.50129   0.535442  3.153814
C -0.515759 -0.531155  2.22623 
C -1.597434 -0.240625  1.188256
O -1.050253  0.646626  0.230806
C -1.933941  1.062963 -0.794337
C -1.187019  2.072708 -1.673993
O -0.314919  1.461254 -2.597327
C  0.889368  0.913208 -2.087883
C  0.806456 -0.615475 -2.047915
O  2.102652 -1.078334 -1.715308
C  2.223017 -2.4785   -1.622444
H 1.545225 0.586297 3.51204 
H 0.479691 1.407523 4.686331
H  0.587647 -0.374748  4.675394
H -0.735235 -1.484774  2.734829
H  0.457491 -0.620196  1.719345
H -2.469445  0.213451  1.683067
H -1.913903 -1.180502  0.707073
H -2.823809  1.546568 -0.359939
H -2.26188   0.204775 -1.401312
H -1.917684  2.630854 -2.271007
H -0.642781  2.775963 -1.025868
H  1.701277  1.203243 -2.767436
H  1.112707  1.302039 -1.086298
H  0.072069 -0.944646 -1.298492
H  0.493073 -0.995157 -3.033367
H  1.980163 -2.966642 -2.577194
H  3.261808 -2.693938 -1.363935
H  1.565169 -2.886665 -0.841222
