30

C  0.238485 -0.704646  4.425948
O -0.713621 -0.499583  3.406019
C -0.26267   0.288463  2.323682
C -1.4295    0.400854  1.34653 
O -0.957932  1.143908  0.238373
C -1.826608  1.190085 -0.882084
C -1.086154  1.916812 -2.019599
O -0.74689   1.036538 -3.072832
C  0.54886   0.474907 -3.057368
C  0.725632 -0.567507 -1.947223
O  1.972352 -1.19297  -2.189469
C  2.333689 -2.166618 -1.236736
H 0.554023 0.247218 4.875671
H -0.2409   -1.32103   5.188768
H  1.126963 -1.227297  4.044413
H  0.596023 -0.184226  1.819433
H 0.042364 1.290946 2.662685
H -2.280333  0.90659   1.82815 
H -1.75044  -0.605745  1.037074
H -2.75013   1.729912 -0.619558
H -2.099802  0.175097 -1.206394
H -1.745003  2.679011 -2.454151
H -0.195107  2.415582 -1.614369
H  0.680079 -0.016166 -4.027621
H  1.315641  1.257798 -2.952194
H  0.722135 -0.08792  -0.957415
H -0.096459 -1.300113 -1.986471
H  1.609593 -2.993413 -1.21434 
H  3.311512 -2.553522 -1.530276
H  2.404208 -1.732965 -0.22863 
