30

C -0.494044  0.053682  5.324403
O -1.091718 -0.16893   4.066751
C -0.568047  0.615173  3.014071
C -1.346286  0.235477  1.757761
O -0.811414  1.007609  0.699569
C -1.406568  0.787717 -0.565995
C -0.682319  1.704749 -1.564755
O -0.684191  1.132684 -2.859895
C  0.524596  0.580121 -3.332377
C  0.867697 -0.747352 -2.645212
O  2.001518 -1.256034 -3.320286
C  2.48281  -2.486022 -2.82647 
H -0.624657  1.095066  5.650666
H -0.991064 -0.61011   6.03438 
H  0.580125 -0.178266  5.303625
H 0.504115 0.411803 2.863982
H -0.692783  1.689885  3.220412
H -2.41668   0.45004   1.900658
H -1.229964 -0.841082  1.557311
H -2.48337   1.014179 -0.535016
H -1.287348 -0.262964 -0.873131
H -1.201922  2.669033 -1.631847
H  0.341498  1.883147 -1.209502
H  0.381017  0.396838 -4.402675
H  1.360051  1.285177 -3.204849
H  1.090376 -0.587375 -1.578464
H  0.015853 -1.441524 -2.724523
H  1.723872 -3.276324 -2.912778
H  3.350792 -2.753889 -3.431944
H  2.788065 -2.402507 -1.773854
