30

C  0.508706 -0.639355  4.195371
O -0.533686 -0.37011   3.284576
C -0.133208  0.308221  2.111385
C -1.387698  0.493858  1.262484
O -0.980749  1.147884  0.075276
C -1.95511   1.212406 -0.952835
C -1.32277   1.929584 -2.152132
O -0.570515  1.067143 -2.97513 
C  0.708028  0.674778 -2.506212
C  0.670867 -0.748784 -1.942287
O  2.013955 -1.101108 -1.665482
C  2.176519 -2.344541 -1.023285
H 0.981513 0.288101 4.547683
H  0.062403 -1.160195  5.044635
H  1.279317 -1.279371  3.742927
H  0.609987 -0.279573  1.549227
H 0.30753  1.288625 2.350793
H -2.1295    1.095832  1.809611
H -1.830966 -0.488558  1.038661
H -2.835223  1.779492 -0.608773
H -2.280596  0.203357 -1.246475
H -2.121861  2.331356 -2.786382
H -0.705349  2.763123 -1.785613
H  1.394237  0.695654 -3.362369
H  1.080201  1.367813 -1.740057
H  0.06456  -0.786595 -1.0262  
H  0.227184 -1.432631 -2.683076
H  1.782988 -3.168011 -1.636032
H  3.248347 -2.489432 -0.873584
H  1.6709   -2.358963 -0.046686
