30

C  0.515695 -0.681226  4.209346
O -0.440624 -0.342109  3.235211
C -0.061145  0.325533  2.053296
C -1.339773  0.512359  1.241735
O -0.964405  1.155745  0.038791
C -1.97297   1.236415 -0.953991
C -1.36663   1.918388 -2.186375
O -0.587529  1.046186 -2.972808
C  0.686812  0.68083  -2.469563
C  0.665097 -0.75931  -1.949826
O  1.993609 -1.066201 -1.569055
C  2.158057 -2.330776 -0.970024
H 1.017361 0.210302 4.613101
H -0.025542 -1.183356  5.013049
H  1.279856 -1.36255   3.807255
H  0.662801 -0.268242  1.471773
H 0.391681 1.305818 2.272267
H -2.061015  1.122098  1.807409
H -1.795053 -0.469054  1.038467
H -2.824249  1.833083 -0.588335
H -2.336568  0.232632 -1.221214
H -2.18028   2.265383 -2.833967
H -0.775338  2.787129 -1.859461
H  1.404658  0.748428 -3.297281
H  1.008965  1.358631 -1.668737
H -0.015614 -0.847512 -1.091028
H  0.314255 -1.438354 -2.742992
H  1.85905  -3.140123 -1.651243
H  3.218394 -2.436134 -0.731615
H  1.570452 -2.414014 -0.044166
