30

C  0.585325 -0.674896  4.108059
O -0.478279 -0.387913  3.22643 
C -0.102453  0.308673  2.055639
C -1.37334   0.501954  1.233097
O -0.987399  1.164558  0.043849
C -1.980628  1.247883 -0.963963
C -1.353139  1.929381 -2.186017
O -0.559245  1.056987 -2.957558
C  0.70219   0.686016 -2.426331
C  0.665375 -0.759076 -1.9214  
O  1.975902 -1.061721 -1.479817
C  2.122936 -2.337662 -0.900475
H 1.065679 0.236958 4.461236
H  0.156867 -1.210001  4.957907
H  1.341139 -1.311407  3.626091
H  0.631765 -0.268249  1.471139
H 0.339566 1.287128 2.300625
H -2.104214  1.100036  1.798915
H -1.821615 -0.478363  1.00973 
H -2.836439  1.845833 -0.611145
H -2.341881  0.245036 -1.237724
H -2.155138  2.2752   -2.848544
H -0.768381  2.798801 -1.849297
H  1.441098  0.761727 -3.234611
H  1.004256  1.354907 -1.610448
H -0.055473 -0.858967 -1.097293
H  0.35721  -1.433192 -2.736183
H  1.867501 -3.134451 -1.613462
H  3.170834 -2.438255 -0.610572
H  1.489995 -2.446924 -0.007859
