30

C  0.455316 -0.836098  4.047776
O -0.551756 -0.219675  3.277002
C -0.212843 -0.01152   1.921008
C -1.408322  0.678072  1.270067
O -1.059435  0.901881 -0.081598
C -2.045646  1.554137 -0.855976
C -1.535094  1.766182 -2.299264
O -0.76253   0.707876 -2.804607
C  0.586901  0.604097 -2.376229
C  0.818323 -0.816842 -1.861605
O  2.164518 -0.880087 -1.426946
C  2.533778 -2.103344 -0.835034
H  1.36988  -0.227023  4.071368
H  0.063725 -0.935869  5.061888
H  0.704572 -1.832688  3.656678
H -0.011606 -0.968561  1.413397
H 0.68061  0.625624 1.828733
H -1.616952  1.628219  1.786059
H -2.300185  0.036568  1.346083
H -2.301012  2.534296 -0.422548
H -2.962537  0.940831 -0.876331
H -2.405734  1.863479 -2.958079
H -0.963849  2.708823 -2.341324
H  1.251336  0.798642 -3.230972
H  0.817822  1.325887 -1.584233
H  0.125994 -1.028904 -1.033789
H  0.629589 -1.543952 -2.667032
H  2.416414 -2.941495 -1.536796
H  3.584817 -2.017989 -0.551275
H  1.933917 -2.310568  0.063597
