30

C  0.603173 -0.666654  4.061494
O -0.450903 -0.391177  3.166859
C -0.073549  0.330392  2.012445
C -1.340539  0.510255  1.160837
O -1.007819  1.137986  0.066493
C -1.993697  1.241515 -0.956335
C -1.356498  1.934464 -2.165   
O -0.550676  1.071253 -2.934049
C  0.701667  0.691974 -2.385993
C  0.658374 -0.765346 -1.918254
O  1.944091 -1.058536 -1.404477
C  2.080032 -2.349989 -0.856584
H 1.060134 0.258954 4.439102
H  0.174639 -1.22244   4.897817
H  1.383498 -1.276533  3.584369
H  0.683665 -0.219851  1.431089
H 0.341557 1.315565 2.278033
H -2.092081  1.053507  1.775143
H -1.763721 -0.502011  0.978669
H -2.847892  1.835324 -0.594788
H -2.353109  0.240211 -1.236226
H -2.152787  2.282114 -2.833337
H -0.779223  2.803719 -1.814994
H  1.457927  0.792171 -3.175304
H  0.982818  1.340158 -1.546439
H -0.109854 -0.895103 -1.142417
H  0.410535 -1.424672 -2.765048
H  1.889594 -3.127551 -1.60989 
H  3.108491 -2.439247 -0.50098 
H  1.392163 -2.500453 -0.012216
