30

C 0.946265 0.59109  2.234614
O -0.126261 -0.019426  2.930274
C -0.913066 -0.930782  2.218074
C -1.898701 -0.308168  1.211351
O -1.232773  0.62723   0.381685
C -1.982339  1.083329 -0.730358
C -1.122795  2.084644 -1.511097
O -0.154327  1.465012 -2.327843
C  1.011302  0.974179 -1.689838
C  0.968661 -0.552202 -1.571435
O  2.117513 -0.925255 -0.831277
C  2.244344 -2.309772 -0.598454
H 0.611048 1.474801 1.67978 
H 1.676959 0.900809 2.987056
H  1.423007 -0.109732  1.538936
H -1.524619 -1.450691  2.969355
H -0.3126   -1.707499  1.712928
H -2.711064  0.197995  1.758413
H -2.33988  -1.118837  0.60992 
H -2.904163  1.584227 -0.39235 
H -2.259649  0.241313 -1.383037
H -1.773377  2.651626 -2.187466
H -0.650671  2.781929 -0.802851
H  1.874998  1.263651 -2.302465
H  1.130241  1.413498 -0.69102 
H  0.0533   -0.870592 -1.053265
H  0.979037 -1.010772 -2.572536
H  2.313426 -2.869752 -1.541633
H  3.162694 -2.454703 -0.02615 
H  1.393501 -2.69715  -0.019292
