30

C  0.609307 -0.706775  4.070423
O -0.469424 -0.393333  3.21752 
C -0.11438   0.331945  2.060337
C -1.386993  0.52004   1.235326
O -0.995889  1.174185  0.043235
C -1.984353  1.249015 -0.969973
C -1.352777  1.925295 -2.192814
O -0.553872  1.050354 -2.956183
C  0.704958  0.683136 -2.416248
C  0.666156 -0.759252 -1.903872
O  1.975242 -1.060066 -1.456817
C  2.119513 -2.331967 -0.867948
H 1.103633 0.202249 4.440608
H  0.196138 -1.260652  4.915531
H  1.354811 -1.331261  3.558206
H  0.594448 -0.230387  1.430436
H 0.327348 1.306913 2.314726
H -2.124721  1.120376  1.790221
H -1.829676 -0.464012  1.017869
H -2.843519  1.846569 -0.624769
H -2.341469  0.243607 -1.239742
H -2.152479  2.266132 -2.860665
H -0.771097  2.797545 -1.85806 
H  1.448213  0.754954 -3.220894
H  1.002106  1.35666  -1.602384
H -0.057129 -0.854569 -1.081324
H  0.360029 -1.437421 -2.71605 
H  1.864754 -3.133603 -1.575717
H  3.166649 -2.431648 -0.574987
H  1.484483 -2.43403   0.02403 
