30

C  0.583513 -0.67621   4.108111
O -0.478488 -0.388134  3.226266
C -0.101149  0.308137  2.055203
C -1.372885  0.501801  1.233116
O -0.986781  1.163946  0.043658
C -1.980185  1.24756  -0.963976
C -1.352965  1.929338 -2.186002
O -0.559034  1.057176 -2.957708
C  0.702419  0.686255 -2.426532
C  0.665439 -0.758662 -1.921165
O  1.976487 -1.062112 -1.48171 
C  2.12357  -2.33794  -0.902144
H 1.067977 0.243515 4.464877
H  0.155009 -1.209709  4.958713
H  1.34101  -1.311229  3.627285
H  0.628343 -0.273754  1.470417
H 0.336156 1.287641 2.30282 
H -2.103246  1.100487  1.798951
H -1.821874 -0.478243  1.010002
H -2.835924  1.84544  -0.610895
H -2.34148   0.244764 -1.237892
H -2.155118  2.275117 -2.848361
H -0.768273  2.798792 -1.849226
H  1.441226  0.761585 -3.23495 
H  1.004655  1.355413 -1.610932
H -0.054111 -0.857855 -1.095814
H  0.355435 -1.432711 -2.735304
H  1.866265 -3.134807 -1.614369
H  3.1719   -2.439222 -0.614051
H  1.492117 -2.446378 -0.008368
