30

C -1.074609  0.549228  5.708989
O -1.260655  0.020459  4.415092
C -0.812253  0.852494  3.364366
C -1.10882   0.111573  2.063919
O -0.649305  0.93809   1.011293
C -0.848677  0.421177 -0.289958
C -0.32231   1.484378 -1.260082
O -0.544437  1.09046  -2.599906
C  0.55552   0.62124  -3.347304
C  0.889016 -0.841817 -3.030458
O  1.883256 -1.228045 -3.958256
C  2.314905 -2.565695 -3.844208
H -1.622234  1.493422  5.837835
H -1.462159 -0.189627  6.413004
H -0.010485  0.726061  5.919786
H 0.269217 1.045204 3.445562
H -1.339602  1.819423  3.371904
H -2.190681 -0.072939  1.976149
H -0.587849 -0.858537  2.059155
H -1.91661   0.236683 -0.483835
H -0.304552 -0.52743  -0.42063 
H -0.873802  2.418052 -1.090591
H  0.743285  1.669902 -1.066314
H  0.267261  0.694065 -4.40186 
H  1.445597  1.246744 -3.182285
H  1.260788 -0.941951 -1.998127
H -0.015257 -1.46173  -3.136794
H  1.48579  -3.268688 -4.006328
H  3.073604 -2.721307 -4.613517
H  2.756066 -2.760892 -2.856582
