30

C  0.546315 -0.649596  4.120923
O -0.515377 -0.375419  3.235256
C -0.139406  0.306555  2.049628
C -1.34593   0.489523  1.254846
O -0.962423  1.147511  0.055951
C -1.964462  1.241561 -0.9413  
C -1.346628  1.927926 -2.165608
O -0.565832  1.056727 -2.951584
C  0.702847  0.68199  -2.44095 
C  0.670722 -0.762235 -1.933187
O  1.992343 -1.074289 -1.533106
C  2.145268 -2.344507 -0.943014
H 1.030002 0.275614 4.46456 
H  0.118304 -1.171176  4.979192
H  1.30467  -1.290809  3.64961 
H  0.607662 -0.282807  1.490142
H 0.32097  1.278754 2.295628
H -2.091566  1.092913  1.799785
H -1.809163 -0.484444  1.023491
H -2.814126  1.841199 -0.576482
H -2.333115  0.242073 -1.217812
H -2.154224  2.282146 -2.816839
H -0.753807  2.792187 -1.829715
H  1.427943  0.753641 -3.261984
H  1.021049  1.351589 -1.631707
H -0.024066 -0.855942 -1.086327
H  0.331791 -1.43465  -2.737087
H  1.855881 -3.14714  -1.636199
H  3.201504 -2.453818 -0.68871 
H  1.542864 -2.435076 -0.027384
