30

C -1.574442  0.594402  5.693233
O -1.164439  0.010803  4.476825
C -1.021416  0.918159  3.4026  
C -0.587082  0.096781  2.192334
O -0.432011  1.005251  1.119085
C -0.047373  0.421521 -0.111917
C  0.011196  1.559301 -1.145853
O -0.45164   1.150393 -2.414714
C  0.488461  0.621714 -3.323708
C  0.741123 -0.872442 -3.087283
O  1.549432 -1.30954  -4.161253
C  1.859746 -2.685201 -4.150416
H -2.556444  1.077969  5.593984
H -1.643837 -0.212355  6.425416
H -0.847163  1.339852  6.0446  
H -0.260291  1.681849  3.627844
H -1.973012  1.428405  3.185537
H -1.351766 -0.660638  1.959922
H  0.360304 -0.420044  2.411718
H -0.794131 -0.321098 -0.434798
H  0.926008 -0.084737 -0.012706
H -0.648785  2.364467 -0.802463
H  1.032123  1.964379 -1.215046
H  0.061617  0.748609 -4.324986
H  1.440877  1.170902 -3.275845
H  1.252483 -1.03541  -2.124855
H -0.218501 -1.412809 -3.066701
H  0.95088  -3.300461 -4.207121
H  2.479581 -2.877818 -5.028109
H  2.418512 -2.962205 -3.245303
