30

C  0.542765 -0.600613  4.183401
O -0.480593 -0.442997  3.226136
C -0.095255  0.248003  2.054942
C -1.364782  0.470185  1.237732
O -0.971778  1.13458   0.05177 
C -1.968203  1.241452 -0.950775
C -1.341944  1.940106 -2.163715
O -0.559     1.076095 -2.955353
C  0.705571  0.691604 -2.441669
C  0.666331 -0.758721 -1.952216
O  1.984863 -1.079778 -1.549177
C  2.131798 -2.359795 -0.978875
H 0.922011 0.372134 4.526548
H  0.10708  -1.135253  5.029643
H  1.381845 -1.185032  3.780196
H  0.625309 -0.342727  1.467013
H 0.370053 1.215222 2.300614
H -2.082629  1.077239  1.810682
H -1.831715 -0.50011   1.00901 
H -2.818681  1.838739 -0.58427 
H -2.336931  0.245689 -1.240006
H -2.145093  2.303795 -2.815231
H -0.748918  2.799003 -1.814638
H  1.435901  0.77145  -3.257297
H  1.020564  1.350246 -1.622251
H -0.033351 -0.860936 -1.110362
H  0.32972  -1.419838 -2.766405
H  1.846253 -3.150453 -1.687251
H  3.186049 -2.474827 -0.718939
H  1.52277  -2.464463 -0.069237
