30

C  0.503121 -0.587915  4.211806
O -0.517783 -0.362127  3.266609
C -0.084641  0.240924  2.057923
C -1.347891  0.454222  1.234798
O -0.963027  1.123948  0.048887
C -1.966451  1.234802 -0.946162
C -1.348341  1.937562 -2.160882
O -0.56961   1.076438 -2.959843
C  0.700167  0.694621 -2.457358
C  0.668802 -0.755345 -1.966051
O  1.994587 -1.077269 -1.587991
C  2.15052  -2.355017 -1.015314
H 0.979274 0.353797 4.519429
H  0.035002 -1.054258  5.080857
H  1.275824 -1.260652  3.813218
H  0.690721 -0.384116  1.591235
H 0.373756 1.223452 2.264417
H -2.058307  1.058988  1.818234
H -1.819052 -0.513762  1.003568
H -2.814249  1.830892 -0.571619
H -2.337322  0.240145 -1.23654 
H -2.155827  2.302486 -2.806322
H -0.753798  2.795887 -1.813018
H  1.422541  0.7745   -3.280024
H  1.021733  1.355108 -1.641943
H -0.014603 -0.856837 -1.110915
H  0.316393 -1.416518 -2.77348 
H  1.848529 -3.148176 -1.714019
H  3.209679 -2.471401 -0.776799
H  1.56026  -2.454378 -0.09268 
