30

C  0.530925 -0.739939  4.12613 
O -0.520642 -0.482115  3.222316
C -0.145619  0.242103  2.068173
C -1.408851  0.414938  1.229481
O -1.024941  1.112302  0.059571
C -2.007938  1.190328 -0.958782
C -1.391342  1.93103  -2.151547
O -0.559641  1.111233 -2.940525
C  0.71079   0.772316 -2.409618
C  0.723026 -0.684404 -1.93798 
O  2.04827  -0.9583   -1.522178
C  2.237781 -2.236705 -0.961047
H  1.256308 -1.449492  3.703282
H 1.055662 0.184188 4.404827
H  0.082005 -1.180182  5.018813
H  0.612542 -0.305213  1.485699
H 0.266031 1.227749 2.335966
H -2.165162  0.98027   1.795555
H -1.82509  -0.573156  0.979969
H -2.889196  1.745981 -0.599623
H -2.328894  0.183802 -1.267111
H -2.197908  2.269796 -2.812202
H -0.840732  2.80901  -1.781134
H  1.450752  0.891778 -3.211605
H  0.984756  1.433251 -1.577395
H  0.017921 -0.824795 -1.106234
H  0.42273  -1.347977 -2.764279
H  1.990335 -3.031468 -1.679098
H  3.292769 -2.313805 -0.690286
H  1.623363 -2.372519 -0.059118
