30

C  0.284369 -0.72967   4.346779
O -0.69725  -0.470119  3.368085
C -0.238032  0.254497  2.245738
C -1.437562  0.437232  1.320238
O -0.964173  1.120517  0.175137
C -1.893496  1.244208 -0.888823
C -1.179383  1.912375 -2.074713
O -0.735598  0.97478  -3.03371 
C  0.591266  0.500688 -2.93721 
C  0.746571 -0.592225 -1.873637
O  2.017797 -1.177513 -2.091665
C  2.360691 -2.189422 -1.173067
H 0.696882 0.202942 4.756555
H -0.204702 -1.288407  5.146934
H  1.108277 -1.330883  3.937095
H  0.556338 -0.296435  1.716071
H 0.160514 1.237077 2.543525
H -2.223244  1.016617  1.828939
H -1.849215 -0.547137  1.048888
H -2.75157   1.858441 -0.572819
H -2.267664  0.255481 -1.19424 
H -1.888335  2.572209 -2.590628
H -0.344585  2.521185 -1.699396
H  0.8345    0.071292 -3.915753
H  1.291245  1.324555 -2.731654
H  0.689515 -0.166381 -0.862196
H -0.055801 -1.338415 -1.987709
H  1.656661 -3.032229 -1.223604
H  3.359618 -2.539612 -1.440654
H  2.376375 -1.805646 -0.142483
