30

C  0.435134 -0.646856  4.242131
O -0.569813 -0.351716  3.297845
C -0.11136   0.299953  2.130584
C -1.333288  0.520873  1.242823
O -0.874598  1.150156  0.056853
C -1.919622  1.23775  -0.903034
C -1.358706  1.908226 -2.16345 
O -0.618709  1.02488  -2.974807
C  0.676892  0.661407 -2.527819
C  0.675854 -0.766972 -1.975712
O  2.026488 -1.087701 -1.697684
C  2.218011 -2.329662 -1.060987
H 0.929008 0.267563 4.599583
H -0.053989 -1.143022  5.082535
H  1.196261 -1.317677  3.819262
H  0.626803 -0.319533  1.596429
H 0.356662 1.266614 2.374164
H -2.068494  1.154178  1.76191 
H -1.803062 -0.447441  1.014252
H -2.749351  1.843158 -0.505625
H -2.300067  0.235735 -1.150238
H -2.195161  2.257668 -2.780011
H -0.748165  2.774504 -1.866778
H  1.351393  0.70506  -3.392689
H  1.043496  1.355716 -1.760808
H  0.06715  -0.826824 -1.06228 
H  0.251653 -1.456177 -2.722964
H  1.846356 -3.159743 -1.678531
H  3.292721 -2.448936 -0.909228
H  1.710512 -2.36118  -0.085707
