30

C -0.797204  0.33952   5.56844 
O -1.212403 -0.046759  4.277392
C -0.697111  0.745733  3.226814
C -1.265718  0.175839  1.930662
O -0.740275  0.960326  0.876782
C -1.161726  0.584133 -0.421032
C -0.501391  1.570146 -1.392617
O -0.616883  1.101746 -2.723527
C  0.543818  0.605937 -3.352689
C  0.904676 -0.805753 -2.873949
O  1.971974 -1.237887 -3.694547
C  2.448165 -2.535371 -3.414727
H -1.115838  1.365402  5.800905
H -1.265979 -0.350395  6.27271 
H 0.29509  0.276248 5.673132
H 0.40331  0.703454 3.201649
H -1.00247   1.798155  3.337751
H -2.365381  0.226984  1.949491
H -0.967221 -0.878655  1.823268
H -2.257897  0.64108  -0.503597
H -0.846927 -0.445198 -0.651956
H -1.017206  2.537341 -1.336549
H  0.549152  1.713888 -1.106249
H  0.321483  0.567519 -4.424708
H  1.400547  1.278284 -3.195052
H  1.209366 -0.791797 -1.815421
H  0.031572 -1.469475 -2.97718 
H  1.660348 -3.289116 -3.553198
H  3.261733 -2.733163 -4.115224
H  2.830406 -2.608167 -2.386752
