30

C 0.986894 0.50349  2.184374
O -0.187288  0.186191  2.907724
C -1.018951 -0.81236   2.386292
C -1.875714 -0.399564  1.161693
O -1.251151  0.636103  0.429385
C -1.975363  1.07198  -0.70717 
C -1.125686  2.107344 -1.453923
O -0.160531  1.523694 -2.301843
C  1.013692  1.016648 -1.694923
C  0.961416 -0.510594 -1.588115
O  2.111099 -0.899992 -0.857984
C  2.250537 -2.291339 -0.67796 
H 0.810889 1.332283 1.489809
H 1.743865 0.808325 2.913601
H  1.361044 -0.359882  1.621824
H -1.69974  -1.106041  3.193867
H -0.417118 -1.696621  2.108353
H -2.864906 -0.054104  1.509119
H -2.035022 -1.284765  0.524685
H -2.926537  1.535282 -0.397434
H -2.200264  0.226002 -1.37469 
H -1.782105  2.697259 -2.104434
H -0.651404  2.778674 -0.722768
H  1.865058  1.304667 -2.325007
H  1.159421  1.447167 -0.695793
H  0.046827 -0.827352 -1.06767 
H  0.962322 -0.960544 -2.593186
H  2.331125 -2.813255 -1.641837
H  3.167108 -2.449125 -0.106195
H  1.400496 -2.709573 -0.119772
