30

C -0.416611 -0.50992   4.065824
O  0.755274 -0.267614  3.32227 
C 0.697791 0.32567  2.036704
C -0.706339  0.608282  1.497   
O -0.50178   1.177472  0.216301
C -1.674133  1.371019 -0.557656
C -1.259009  1.990788 -1.89771 
O -0.768735  1.041687 -2.815747
C  0.543393  0.547662 -2.603707
C  0.501552 -0.873848 -2.035784
O  1.841419 -1.328341 -2.007211
C  2.0318   -2.570213 -1.369208
H -1.090985 -1.218152  3.564328
H -0.086995 -0.952926  5.008931
H -0.969639  0.41345   4.2882  
H  1.20438  -0.346835  1.328479
H 1.256599 1.27302  2.063105
H -1.253516  1.311928  2.143899
H -1.292542 -0.32032   1.41287 
H -2.366481  2.053117 -0.038345
H -2.187681  0.413061 -0.73019 
H -2.142937  2.438979 -2.366557
H -0.515001  2.779943 -1.711421
H  1.050485  0.523906 -3.576811
H  1.110255  1.200747 -1.927619
H  0.070021 -0.872244 -1.024562
H -0.121059 -1.515762 -2.679071
H  1.473984 -3.371589 -1.874382
H  3.099767 -2.792312 -1.415477
H  1.716734 -2.530654 -0.316432
