30

C 0.943303 0.584363 2.228082
O -0.142353  0.005674  2.927694
C -0.92676  -0.929978  2.237754
C -1.901011 -0.327067  1.207144
O -1.233762  0.620193  0.393741
C -1.979759  1.083982 -0.717628
C -1.119472  2.092625 -1.488068
O -0.155419  1.48059  -2.315821
C  1.012588  0.981816 -1.688842
C  0.964631 -0.544857 -1.57624 
O  2.116077 -0.925172 -0.84388 
C  2.239919 -2.311237 -0.618792
H 0.629397 1.47087  1.665335
H 1.681657 0.884125 2.977527
H  1.404705 -0.132698  1.538389
H -1.520237 -1.462384  2.990313
H -0.27964  -1.662346  1.722627
H -2.737779  0.162976  1.732685
H -2.311946 -1.146438  0.595993
H -2.903505  1.580578 -0.378498
H -2.253849  0.246776 -1.377806
H -1.770305  2.670067 -2.155284
H -0.643136  2.779466 -0.772509
H  1.87274   1.270259 -2.306894
H  1.141066  1.416618 -0.689243
H  0.051006 -0.861892 -1.054195
H  0.967673 -0.999476 -2.579192
H  2.302768 -2.866551 -1.56516 
H  3.16063  -2.461801 -0.051754
H  1.390782 -2.69908  -0.037459
