30

C  0.509133 -0.506798  4.250528
O -0.538546 -0.255262  3.340651
C -0.119904  0.162099  2.058047
C -1.382205  0.400624  1.23286 
O -0.976281  1.083441  0.061525
C -1.967601  1.22136  -0.942288
C -1.334663  1.953802 -2.131519
O -0.549867  1.111466 -2.944441
C  0.717325  0.720384 -2.443055
C  0.684229 -0.737598 -1.976077
O  2.012137 -1.071068 -1.615726
C  2.165371 -2.351458 -1.048689
H 1.112311 0.395177 4.42491 
H  0.047137 -0.817389  5.189556
H  1.16839  -1.308682  3.889244
H  0.504754 -0.608232  1.57704 
H 0.466322 1.093205 2.107396
H -2.092946  1.008844  1.813923
H -1.863709 -0.55733   0.9845  
H -2.818725  1.809289 -0.562519
H -2.336557  0.235088 -1.262259
H -2.134402  2.337829 -2.775552
H -0.741549  2.800995 -1.755188
H  1.442894  0.81328  -3.261509
H  1.035951  1.367435 -1.615701
H  0.008544 -0.851068 -1.116307
H  0.321733 -1.383498 -2.791355
H  1.847334 -3.140425 -1.745015
H  3.226636 -2.477182 -0.824731
H  1.586762 -2.44833  -0.118229
