30

C 0.92885  0.577796 2.275619
O -0.101191 -0.129352  2.943178
C -0.902084 -0.967015  2.155845
C -1.913234 -0.232861  1.26126 
O -1.226907  0.616401  0.356535
C -1.991757  1.079486 -0.742432
C -1.132977  2.064815 -1.544301
O -0.163348  1.429856 -2.346927
C  1.004037  0.9579   -1.697138
C  0.97793  -0.567873 -1.569763
O  2.12885  -0.922362 -0.823661
C  2.275628 -2.30422  -0.587072
H 0.541687 1.471343 1.772402
H 1.647885 0.883587 3.040173
H  1.435804 -0.057091  1.538573
H -1.483271 -1.578569  2.859629
H -0.304331 -1.659519  1.538923
H -2.59772   0.362267  1.886551
H -2.503229 -0.985265  0.714938
H -2.897938  1.597972 -0.389735
H -2.295037  0.238477 -1.384706
H -1.784928  2.616401 -2.232078
H -0.662264  2.77769  -0.85061 
H  1.869317  1.253825 -2.304628
H  1.109834  1.404189 -0.699992
H  0.064172 -0.89305  -1.052683
H  0.997102 -1.032381 -2.567989
H  2.358511 -2.865071 -1.528648
H  3.19291  -2.433803 -0.009388
H  1.427709 -2.703573 -0.011858
