30

C -0.412174 -0.411995  4.130309
O  0.705321 -0.431247  3.271133
C 0.666506 0.254911 2.033847
C -0.732701  0.540963  1.483958
O -0.519987  1.137531  0.217244
C -1.685867  1.336623 -0.565058
C -1.262005  1.985601 -1.888451
O -0.753781  1.058611 -2.819181
C  0.55901   0.569182 -2.600296
C  0.519535 -0.864145 -2.062817
O  1.862458 -1.308393 -2.02098 
C  2.05183  -2.563456 -1.408771
H -1.274561 -0.940828  3.702109
H -0.102315 -0.931621  5.040338
H -0.715836  0.610511  4.396276
H  1.19018  -0.380036  1.305427
H 1.230734 1.197734 2.111594
H -1.2936    1.226393  2.138503
H -1.307643 -0.39256   1.377208
H -2.389184  2.00296  -0.039999
H -2.189689  0.378113 -0.761411
H -2.144739  2.435262 -2.358144
H -0.526876  2.777307 -1.679025
H  1.079053  0.569526 -3.566846
H  1.112302  1.211588 -1.903085
H  0.071013 -0.886951 -1.059269
H -0.086842 -1.497472 -2.729687
H  1.510013 -3.357095 -1.942727
H  3.1223   -2.775794 -1.440838
H  1.717556 -2.551226 -0.361345
