30

C  0.320545 -0.289341  4.395888
O -0.345029 -0.678533  3.215537
C 0.015022 0.016125 2.035536
C -1.269836  0.333639  1.269899
O -0.883754  1.02954   0.099582
C -1.90525   1.21893  -0.865236
C -1.299027  1.977171 -2.05232 
O -0.567878  1.145898 -2.924031
C  0.708094  0.707982 -2.487586
C  0.657287 -0.762318 -2.062872
O  1.99183  -1.141128 -1.780954
C  2.137253 -2.439241 -1.252568
H 0.15716  0.774034 4.618657
H -0.096164 -0.891617  5.205932
H  1.401454 -0.476149  4.330126
H  0.669892 -0.610442  1.41159 
H 0.548473 0.948298 2.266714
H -1.937383  0.949067  1.892836
H -1.79209  -0.601697  1.017758
H -2.730593  1.810969 -0.437915
H -2.305143  0.250759 -1.202611
H -2.112708  2.403316 -2.650868
H -0.670649  2.795929 -1.670135
H  1.401328  0.807897 -3.33277 
H  1.07716   1.321864 -1.655836
H  0.022724 -0.884545 -1.173525
H  0.236477 -1.372587 -2.877623
H  1.764857 -3.201724 -1.951429
H  3.204283 -2.597931 -1.083869
H  1.601675 -2.544165 -0.297891
