30

C 0.49806  0.468694 4.203362
O -0.561579  0.464185  3.274195
C -0.415217 -0.456377  2.210312
C -1.52705  -0.184503  1.196257
O -1.008211  0.692358  0.212427
C -1.917406  1.081603 -0.801475
C -1.192376  2.064701 -1.728323
O -0.345957  1.425886 -2.657072
C  0.868641  0.885668 -2.16407 
C  0.781556 -0.641265 -2.085806
O  2.079575 -1.099952 -1.754963
C  2.197694 -2.498178 -1.632943
H 1.451764 0.723991 3.720579
H 0.260535 1.226544 4.952345
H  0.602782 -0.50745   4.698563
H -0.489751 -1.490606  2.585355
H  0.56166  -0.333344  1.718418
H -2.387045  0.272083  1.708821
H -1.855294 -1.128011  0.730754
H -2.795451  1.578546 -0.358228
H -2.261433  0.207183 -1.375331
H -1.937665  2.60762  -2.32125 
H -0.630122  2.784701 -1.114826
H  1.66502   1.156908 -2.869271
H  1.117263  1.296699 -1.177403
H  0.053747 -0.949165 -1.321059
H  0.45677  -1.044264 -3.058189
H  1.945362 -3.006096 -2.574797
H  3.238261 -2.710372 -1.378992
H  1.545879 -2.887788 -0.83737 
