30

C  0.621621 -0.71987   4.052324
O -0.464053 -0.396202  3.212015
C -0.118194  0.342443  2.061514
C -1.391848  0.526996  1.23544 
O -0.999656  1.179453  0.042927
C -1.986171  1.250255 -0.972473
C -1.352856  1.923817 -2.195924
O -0.551602  1.047574 -2.955326
C  0.705809  0.681837 -2.411094
C  0.665989 -0.759739 -1.896528
O  1.973168 -1.058534 -1.442604
C  2.115856 -2.329375 -0.851045
H 1.119233 0.184644 4.429062
H  0.215203 -1.28351   4.894244
H  1.362669 -1.338457  3.526703
H  0.581788 -0.211555  1.414012
H 0.321141 1.316574 2.321265
H -2.133238  1.126553  1.786642
H -1.830852 -0.458921  1.019324
H -2.846718  1.84778  -0.630679
H -2.341593  0.243684 -1.240123
H -2.151529  2.26207  -2.86631 
H -0.772665  2.797521 -1.862367
H  1.451469  0.752735 -3.213596
H  1.000186  1.356757 -1.59739 
H -0.061191 -0.854369 -1.077339
H  0.364414 -1.439578 -2.709012
H  1.865454 -3.132372 -1.558824
H  3.161636 -2.427484 -0.552756
H  1.47654  -2.430731  0.037938
