30

C  0.849211 -0.825339  3.729776
O -0.266284 -0.536134  2.918754
C -0.020547  0.402245  1.8901  
C -1.321124  0.531306  1.069809
O -1.098902  1.275409  0.074235
C -2.042311  1.296988 -0.995638
C -1.37196   1.944192 -2.212381
O -0.517087  1.062128 -2.905373
C  0.695604  0.696369 -2.264741
C  0.629602 -0.766376 -1.81267 
O  1.72745  -0.976524 -0.944438
C  1.844966 -2.293614 -0.452634
H 1.215653 0.074649 4.243764
H  0.523354 -1.555273  4.473622
H  1.672153 -1.25411   3.139929
H 0.791352 0.062521 1.228106
H 0.25934  1.382549 2.307515
H -2.116437  0.904107  1.76221 
H -1.628679 -0.510233  0.804737
H -2.928876  1.880214 -0.702202
H -2.358262  0.270957 -1.234304
H -2.145988  2.240238 -2.929639
H -0.827174  2.842167 -1.883711
H  1.51181   0.821961 -2.988116
H  0.89764   1.335408 -1.396673
H -0.321012 -0.955423 -1.291881
H  0.682666 -1.438277 -2.683526
H  2.007543 -3.011417 -1.268843
H  2.707812 -2.308199  0.216137
H  0.948495 -2.592489  0.108092
