30

C  0.503219 -0.680741  4.22699 
O -0.433786 -0.334554  3.237336
C -0.053899  0.327721  2.053134
C -1.333869  0.513492  1.243445
O -0.960242  1.153596  0.03823 
C -1.971403  1.234142 -0.951939
C -1.368673  1.916636 -2.1858  
O -0.592286  1.044701 -2.975172
C  0.684235  0.680025 -2.477055
C  0.665146 -0.759341 -1.955045
O  1.996577 -1.067347 -1.585497
C  2.16414  -2.329753 -0.982799
H 1.00674  0.206374 4.638377
H -0.056593 -1.176424  5.021904
H  1.267761 -1.370072  3.839243
H  0.668066 -0.26925   1.472253
H 0.4009   1.308268 2.267179
H -2.05346   1.125227  1.809052
H -1.790344 -0.468052  1.043567
H -2.821896  1.830443 -0.583879
H -2.33537   0.230287 -1.218401
H -2.184266  2.26423  -2.830632
H -0.776144  2.785038 -1.860229
H  1.398253  0.746239 -3.30818 
H  1.010038  1.359202 -1.67885 
H -0.008064 -0.845553 -1.09017 
H  0.306556 -1.438989 -2.744221
H  1.857258 -3.141334 -1.657834
H  3.226437 -2.436218 -0.753796
H  1.584982 -2.407994 -0.051191
