30

C  0.217737 -1.064026  4.042675
O -0.516303 -0.102725  3.3182  
C -0.450297 -0.243828  1.913412
C -1.287587  0.884929  1.319071
O -1.240467  0.729616 -0.084649
C -1.883833  1.751544 -0.817437
C -1.753219  1.481848 -2.34377 
O -0.920529  0.40518  -2.67871 
C  0.464317  0.534762 -2.394407
C  0.938368 -0.798791 -1.81926 
O  2.306705 -0.641176 -1.492539
C  2.896427 -1.760228 -0.872986
H  1.288129 -1.018564  3.796844
H  0.082433 -0.835975  5.101651
H -0.147749 -2.08112   3.842291
H -0.855327 -1.216811  1.593393
H  0.588886 -0.164946  1.557112
H -0.871202  1.858228  1.623095
H -2.322712  0.818068  1.689005
H -1.43422   2.728585 -0.571821
H -2.951798  1.800373 -0.548402
H -2.739964  1.221969 -2.745647
H -1.418637  2.409998 -2.837236
H  1.016552  0.765578 -3.317682
H  0.654958  1.331066 -1.665037
H  0.343235 -1.040853 -0.926156
H  0.799267 -1.60201  -2.559598
H  2.852857 -2.647597 -1.520567
H  3.941279 -1.506929 -0.681988
H  2.402704 -1.996167  0.081165
