30

C  1.038983 -0.935727  3.526661
O -0.082911 -0.739659  2.695323
C -0.016942  0.416658  1.880819
C -1.330589  0.482914  1.102805
O -1.127898  1.396313  0.04142 
C -2.042692  1.340178 -1.039364
C -1.35484   1.946841 -2.270403
O -0.494436  1.039803 -2.925516
C  0.702592  0.680246 -2.253108
C  0.613947 -0.770857 -1.767111
O  1.66806  -0.964159 -0.84254 
C  1.660277 -2.219459 -0.197554
H  1.167196 -0.099772  4.228639
H  0.861833 -1.853807  4.09042 
H  1.960181 -1.046105  2.937394
H 0.821849 0.350503 1.171218
H 0.114137 1.321363 2.494577
H -2.155159  0.809423  1.755105
H -1.569569 -0.520052  0.717554
H -2.951281  1.917529 -0.80318 
H -2.335097  0.301657 -1.252307
H -2.11817   2.222315 -3.007086
H -0.810267  2.852732 -1.964363
H  1.533931  0.783367 -2.962787
H  0.892001  1.337453 -1.395775
H -0.360946 -0.942168 -1.287   
H  0.703115 -1.467429 -2.615475
H  1.75015  -3.041588 -0.921297
H  2.52096  -2.237617  0.474163
H  0.741598 -2.360894  0.38879 
