30

C  0.515932 -0.667738  4.19509 
O -0.502129 -0.417753  3.24328 
C -0.113272  0.265087  2.069815
C -1.380027  0.453898  1.23892 
O -0.989959  1.120982  0.053533
C -1.983745  1.212671 -0.953248
C -1.366713  1.930731 -2.159545
O -0.56577   1.086594 -2.954556
C  0.705324  0.724061 -2.441295
C  0.692844 -0.727226 -1.953133
O  2.022128 -1.031737 -1.573003
C  2.193985 -2.308026 -1.00152 
H  1.457716 -0.182365  3.916512
H  0.193046 -0.28587   5.169544
H  0.691199 -1.747743  4.275467
H  0.621092 -0.318103  1.491887
H 0.32701  1.246267 2.305214
H -2.116438  1.047852  1.801897
H -1.823109 -0.527641  1.010875
H -2.847933  1.790285 -0.587381
H -2.330526  0.211073 -1.24941 
H -2.174435  2.284084 -2.811105
H -0.790554  2.797949 -1.802879
H  1.433566  0.81689  -3.25739 
H  1.009007  1.388246 -1.622011
H  0.009192 -0.840146 -1.099597
H  0.351203 -1.391199 -2.762895
H  1.90551  -3.104318 -1.70237 
H  3.253855 -2.409923 -0.759558
H  1.602012 -2.416882 -0.081117
