30

C  0.558912 -0.658853  4.115049
O -0.503442 -0.380037  3.231346
C -0.128058  0.30755   2.050744
C -1.354212  0.493836  1.247959
O -0.970397  1.1538    0.052233
C -1.969698  1.243962 -0.948362
C -1.348919  1.92829  -2.1723  
O -0.563673  1.056506 -2.953224
C  0.702627  0.683205 -2.435557
C  0.668957 -0.76131  -1.928755
O  1.986816 -1.069908 -1.513912
C  2.137802 -2.3425   -0.928384
H 1.042593 0.264582 4.463359
H  0.131433 -1.185124  4.970694
H  1.317048 -1.297371  3.639789
H  0.615197 -0.277234  1.482871
H 0.326414 1.281621 2.297145
H -2.095279  1.095238  1.799824
H -1.812789 -0.48206   1.018851
H -2.821358  1.843178 -0.587585
H -2.335948  0.243257 -1.223563
H -2.154827  2.279271 -2.827347
H -0.758902  2.794535 -1.836572
H  1.43247   0.756322 -3.252255
H  1.015259  1.352583 -1.624006
H -0.035171 -0.857197 -1.089867
H  0.34093  -1.434403 -2.736601
H  1.860544 -3.142743 -1.629245
H  3.191245 -2.448639 -0.661465
H  1.524439 -2.44036  -0.020845
