30

C  1.33636234 -0.13977402  2.90205904
O 4.25109863e-01 1.31204591e-03 1.95695817e+00
C -0.87295283  0.16267297  2.4306879 
C -1.79557372  0.51335352  1.26481148
O -1.07823306  1.14573763  0.22467789
C -1.82493701  1.384856   -0.97517259
C -0.81793917  1.89267898 -2.11807466
O -0.3645947   0.88890679 -2.91915763
C  0.82601267  0.19789383 -2.61074843
C  0.59817071 -0.79527815 -1.46203616
O  1.71372256 -1.68551149 -1.53739139
C  1.69399174 -2.53436123 -0.42520843
H  1.35289296 -0.93252756  3.61921047
H  2.32997008 -0.30122104  2.43281152
H 1.59481054 0.78026509 3.56115574
H -0.88180194  0.86737826  3.24661598
H -1.34637239 -0.80964406  2.94500826
H -2.50021407  1.16440858  1.59859073
H -2.3950865  -0.45103377  0.91445859
H -2.58225487  2.22331654 -0.85685363
H -2.39993445  0.47984967 -1.42448915
H -1.21580269  2.64440065 -2.77445332
H  0.01489044  2.31648844 -1.65747721
H  1.0166247  -0.50869167 -3.56315793
H  1.59218192  0.9494042  -2.38710239
H  0.51967541 -0.26941315 -0.42191005
H -0.39646772 -1.33477655 -1.51769427
H  0.60332373 -2.92310936 -0.43063059
H  2.45907656 -3.3313617  -0.42989373
H  1.88110516 -1.96476841  0.43482968
