30

C  0.49019282 -0.50363108  4.26149822
O -0.54846256 -0.15052534  3.37182946
C -0.11151671  0.04784993  1.99764252
C -1.32935141  0.4128924   1.22104838
O -0.94787084  1.07052933  0.04862427
C -2.01437733  1.1935622  -0.92806978
C -1.31255441  1.94640064 -2.06035307
O -0.51973121  1.14608068 -2.93924251
C  0.7029171   0.73938723 -2.47810732
C  0.64963659 -0.74997655 -2.03196828
O  1.97007574 -1.04668934 -1.54816789
C  2.17769698 -2.33340475 -1.07046779
H 1.32000862 0.2659786  4.49216974
H  0.0310608  -0.61238893  5.11917683
H  1.00354263 -1.39795775  3.84066395
H  0.53919698 -0.69216946  1.43206104
H 0.55080408 0.82073971 2.09474497
H -2.06010827  1.02687323  1.75029075
H -1.84586232 -0.57299568  1.08520692
H -3.00324763  1.68332337 -0.52436253
H -2.3983847   0.25749694 -1.37032572
H -2.03706355  2.26647259 -2.78407752
H -0.81973683  2.72182811 -1.59549408
H  1.43376196  0.83296313 -3.2752596 
H  0.97283477  1.34479399 -1.62999099
H -0.10380369 -0.92634003 -1.20420781
H  0.45999122 -1.437026   -2.95087709
H  2.02906312 -3.20644032 -1.66028158
H  3.28798382 -2.42748665 -0.65903806
H  1.64349426 -2.39051118 -0.14010514
