30

C  0.30026212 -1.05223319  3.95245138
O -0.5644932  -0.17108706  3.31070864
C -0.39300635 -0.23439541  1.9038091 
C -1.27677355  0.87215507  1.30507802
O -1.21076124  0.7990434  -0.10387457
C -1.94471115  1.75313566 -0.84578687
C -1.75586694  1.50283819 -2.35812605
O -0.89189082  0.43805988 -2.71258194
C  0.52146     0.54512639 -2.3694947 
C  0.86457232 -0.81934358 -1.73202555
O  2.24235895 -0.67237971 -1.3727899 
C  2.82643096 -1.80466534 -0.7629459 
H  1.36992952 -0.9644609   3.61163463
H  0.13910105 -0.91403411  4.98187384
H -0.02142308 -2.09876881  3.56271634
H -0.59305339 -1.32696035  1.52045495
H 0.60304031 0.05422849 1.62182921
H -0.8684273   1.78367164  1.73331972
H -2.3768149   0.81866109  1.66837588
H -1.64069749  2.82549072 -0.65201031
H -3.04796037  1.6139083  -0.5982182 
H -2.71703174  1.15884992 -2.81490262
H -1.53066764  2.41349677 -2.85142801
H  1.10707466  0.66095663 -3.25874755
H  0.6215636   1.26373132 -1.53351252
H  0.28443996 -1.0969122  -0.97213112
H  0.74624459 -1.56434074 -2.52843259
H  2.70153051 -2.64373353 -1.34809342
H  3.94491546 -1.52569247 -0.5909084 
H  2.29655088 -2.0113887   0.24058727
