30

C 0.79886297 0.51055095 3.7922739 
O -0.34061657  0.56633017  2.94817151
C -0.66396693 -0.61757589  2.20185911
C -1.6988201  -0.24162052  1.20650249
O -1.11035461  0.57548912  0.2043424 
C -1.95965784  1.05818241 -0.84945984
C -1.19945193  2.11544101 -1.6388727 
O -0.29487747  1.4490835  -2.52607419
C  0.88258496  0.95905027 -1.96394273
C  0.82893331 -0.56773113 -1.98189914
O  2.09974158 -0.98903778 -1.53616069
C  2.28560219 -2.39906682 -1.53227527
H 1.58699788 0.33412871 3.19551941
H 0.80569173 1.50635321 4.15642452
H  0.59101266 -0.27382484  4.6763045 
H -1.0143205  -1.39236111  2.86463967
H  0.22780013 -0.95108745  1.68111715
H -2.52409182  0.28121872  1.67440651
H -2.14678806 -1.16550995  0.66503194
H -2.87690323  1.53304829 -0.48739762
H -2.36555178  0.24247615 -1.54281241
H -1.97093193  2.67589077 -2.17222659
H -0.71181985  2.77807432 -1.01015767
H  1.66035058  1.29173075 -2.68838899
H  1.06468229  1.34265147 -0.98236969
H  0.0839472  -0.92294022 -1.28162463
H  0.58626604 -0.95415265 -3.00843864
H  2.13372707 -2.94697191 -2.58619491
H  3.26262359 -2.56101622 -1.30363396
H  1.53374493 -2.91688379 -0.84998234
