30

C  0.23139178 -0.72159387  4.4099566 
O -0.74233846 -0.4567198   3.44512462
C -0.27582559  0.29455172  2.33002845
C -1.42539752  0.41530943  1.30911363
O -0.93186906  1.15120624  0.20644339
C -1.82129688  1.17285435 -0.91648119
C -1.03800937  1.87819568 -1.96461639
O -0.79144814  1.0062977  -3.03143276
C  0.5279318   0.4791051  -3.02734784
C  0.67934913 -0.58686073 -1.97570292
O  1.99929233 -1.12251225 -2.15040235
C  2.3801392  -2.20627841 -1.25868582
H 0.73922527 0.27624196 4.76460916
H -0.35438424 -1.17872776  5.27514753
H  1.09064129 -1.45753943  4.13512859
H  0.52107616 -0.12284399  1.8359055 
H 0.10849009 1.21424914 2.52424222
H -2.18769478  0.9297691   1.84276177
H -1.75492076 -0.62284416  0.87928403
H -2.74483971  1.48568424 -0.71267807
H -2.11404144  0.18517586 -1.35774227
H -1.54673696  2.70181309 -2.43519665
H -0.16369614  2.40982005 -1.48799255
H  0.62907594 -0.03374413 -4.07457889
H  1.22356031  1.33672768 -2.90463159
H  0.57540569 -0.09961144 -0.92490253
H -0.32958882 -1.14606781 -2.18579909
H  1.68100663 -3.04744283 -1.35499062
H  3.36957574 -2.54172471 -1.70424313
H  2.56732529 -1.90311097 -0.216596  
