30

C -1.54480082 -1.06018049  5.12317278
O -0.9949368  -0.29240736  4.06264098
C -1.61359525 -0.48784587  2.84205848
C -0.93324299  0.52717877  1.87904954
O -1.51251944  0.38317853  0.5926447 
C -0.99073543  1.20357336 -0.41170998
C -1.58490483  0.79804093 -1.80145454
O -0.79844667 -0.11694049 -2.44665297
C  0.34270567  0.30377109 -3.14718823
C  1.57861132 -0.40249459 -2.54316372
O  2.73482769  0.07878134 -3.1499634 
C  3.96032169 -0.44190696 -2.6837129 
H -1.52307132 -2.16898236  4.86206802
H -1.0863436  -0.82563179  6.05999726
H -2.57568034 -0.83513144  5.24901433
H -2.65535311 -0.21737234  2.87843599
H -1.41645765 -1.55548115  2.3745758 
H 0.11832515 0.29246928 1.87164871
H -1.15532869  1.48599626  2.34131595
H  0.14209671  1.10223449 -0.57298462
H -1.2781375   2.21805769 -0.20909604
H -2.46456306  0.35215024 -1.62171794
H -1.59708539  1.78068881 -2.34258667
H  0.26052994  0.02167846 -4.26759557
H  0.48328057  1.33518155 -3.09371643
H  1.63962982 -0.1670514  -1.43572916
H  1.40993768 -1.56256656 -2.66843575
H  4.1043479  -1.5959529  -2.80041669
H  4.7098921  -0.06525113 -3.30844686
H  4.187823   -0.06902461 -1.66224863
