30

C  0.33733914 -0.22091889  4.43434685
O -0.3498074  -0.70983732  3.2415497 
C  0.00204849 -0.05049397  1.97629031
C -1.19898064  0.28387103  1.27315618
O -0.8735411   1.07988754  0.14393986
C -1.87047955  1.26707113 -0.84447013
C -1.27625168  1.94300195 -2.08529686
O -0.54499538  1.12225598 -2.9058134 
C  0.74594365  0.75119938 -2.47832342
C  0.7087189  -0.78309039 -2.11892356
O  2.05039102 -1.13318993 -1.76219747
C  2.17071287 -2.50831019 -1.25081004
H 0.12001016 0.80710691 4.54505035
H -0.08254097 -0.87717025  5.19455812
H  1.42970828 -0.35077647  4.40682086
H  0.53557513 -0.82116831  1.29662887
H 0.62956505 0.90995601 2.08096932
H -1.93184777  0.84808027  1.81767114
H -1.66787711 -0.62428327  0.97011635
H -2.75388744  1.89800021 -0.44703354
H -2.33624754  0.30893172 -1.1795678 
H -2.102077    2.28870874 -2.68345044
H -0.67422591  2.80155037 -1.7079618 
H  1.41013319  0.84804309 -3.35766119
H  1.14338319  1.45700796 -1.66140331
H -0.05059149 -0.93011851 -1.35268438
H  0.46642479 -1.45997281 -3.01192984
H  2.02692889 -3.22100051 -2.10853633
H  3.22502504 -2.73184081 -1.01153264
H  1.35061458 -2.76030966 -0.46111847
