30

C -0.2618904  -0.09077146  5.14531987
O -1.0297084  -0.22731759  3.95644173
C -0.5359592   0.4683324   2.88826456
C -1.40608998  0.19791577  1.62051812
O -0.90749209  1.05753594  0.58467587
C -1.51190188  0.87550565 -0.64347955
C -0.73868159  1.7797803  -1.61802163
O -0.74331667  1.14727785 -2.93730128
C  0.5367236   0.55707491 -3.34771476
C  0.83561813 -0.70140468 -2.5274809 
O  2.06305977 -1.21658444 -3.07487022
C  2.47531602 -2.43253412 -2.44303063
H -0.1923963   0.94986657  5.386552  
H -0.81339669 -0.61866874  5.87537191
H  0.80054352 -0.48851634  4.93009674
H 0.50190378 0.30895271 2.48834535
H -0.65184028  1.62099983  2.97778771
H -2.46306711  0.45054566  1.75516405
H -1.46905805 -0.84726736  1.3983856 
H -2.54970847  1.21849726 -0.70503998
H -1.39831864 -0.20053154 -1.01687019
H -1.11333805  2.8066418  -1.71544599
H  0.28161503  1.86036156 -1.1286037 
H  0.28962576  0.26780314 -4.45286584
H  1.41658161  1.26464145 -3.26617523
H  0.88827404 -0.41857    -1.51272751
H  0.07661579 -1.4059786  -2.66182056
H  1.64642271 -3.13009383 -2.38045653
H  3.23659646 -2.88411089 -3.04354403
H  2.83135418 -2.33659566 -1.4357428 
