30

C  1.05955824 -0.91203618  3.5330571 
O -0.06739637 -0.76635543  2.69719208
C -0.04826258  0.44415543  1.95139996
C -1.31921652  0.45747586  1.1019976 
O -1.08392214  1.36904965  0.02000528
C -2.00391964  1.28343083 -1.05477889
C -1.34121886  1.94400811 -2.25477266
O -0.5230563   1.05207947 -2.95396916
C  0.73125596  0.7120203  -2.28262133
C  0.64865286 -0.73831724 -1.79518321
O  1.64481861 -0.97309426 -0.83422107
C  1.58001451 -2.22108372 -0.21071698
H  1.10760176 -0.05282925  4.30494796
H  0.9039924  -1.89499313  4.14504936
H  1.93453934 -0.97261916  2.94560441
H 0.87338064 0.55537697 1.18328104
H -0.07065794  1.37525706  2.53352432
H -2.17694409  0.89075797  1.65543831
H -1.40425239 -0.61376161  0.72524999
H -2.83335665  1.93618591 -0.82721812
H -2.30621324  0.24071716 -1.15256548
H -2.22949211  2.19017841 -2.89377167
H -0.8406672   2.88337064 -1.94443073
H  1.47511137  0.92981922 -3.07414155
H  0.85616922  1.34022097 -1.34141147
H -0.34443587 -1.05676219 -1.37333821
H  0.71142307 -1.53544218 -2.66230552
H  1.68533506 -3.06727856 -0.87958015
H  2.52985    -2.27629923  0.41223469
H  0.60117202 -2.35882053  0.36481837
