30

C -0.05658353 -1.28257232  4.18705485
O -0.49395941 -0.15867405  3.37603325
C -0.66392416 -0.39166139  2.00553708
C -1.10127171  0.92195085  1.40030316
O -1.36129111  0.64715652  0.01805719
C -1.57458689  1.66449289 -0.72589936
C -1.83211381  1.39220847 -2.22634498
O -1.0353585   0.26243809 -2.66659042
C  0.40914071  0.31111937 -2.75882101
C  0.94491152 -0.78149545 -1.94681481
O  2.35811897 -0.3812565  -1.74828933
C  3.12719834 -1.26436956 -0.96936625
H  0.89682115 -1.70715601  3.79081874
H  0.04630949 -0.92535127  5.20830263
H -0.90907445 -1.99984305  4.12323756
H -1.46423286 -1.07686376  1.85123147
H  0.30318587 -0.79694637  1.58815654
H -0.24678859  1.67986228  1.27369792
H -1.94047734  1.38254066  2.02928522
H -0.78733627  2.50962109 -0.97245538
H -2.56972404  2.2368929  -0.38107852
H -2.75172045  1.02504658 -2.65731937
H -1.64438389  2.31822329 -2.71929924
H  0.67915635  0.25461337 -3.74083764
H  0.71238604  1.24433275 -2.31825714
H  0.35627331 -0.84364038 -0.93880513
H  0.90633914 -1.85086195 -2.47885656
H  2.92815833 -2.29293789 -1.26151843
H  4.17513423 -0.96382374 -1.07193779
H  2.82765152 -1.13016764  0.0871484 
