30

C -1.15015304  0.62832349  5.71338023
O -1.33992342  0.06945009  4.44933842
C -0.8251454   0.89215154  3.3995032 
C -1.08070456  0.0667965   2.09608696
O -0.59328507  0.90016045  1.04155197
C -0.71089456  0.33309422 -0.22243408
C -0.28629948  1.44521093 -1.22173536
O -0.50250018  1.07187349 -2.57235437
C  0.52595649  0.61388467 -3.30492704
C  0.86524491 -0.85507892 -3.11319419
O  1.87515556 -1.21811664 -4.00209628
C  2.26041429 -2.50997786 -3.97564253
H -1.731486    1.56462115  6.11375127
H -1.35963809 -0.05537656  6.48976563
H -0.12201368  0.87327365  5.96186342
H 0.30618388 1.11740088 3.53369574
H -1.30341385  1.88677922  3.34993143
H -2.14894761 -0.15061534  1.9171267 
H -0.47595597 -0.83494677  2.16731818
H -1.68282349  0.16810194 -0.49264474
H -0.00071886 -0.49384355 -0.42104164
H -0.78408102  2.37505961 -1.00351734
H  0.84282074  1.67501071 -1.030133  
H  0.2073902   0.77253034 -4.3462941 
H  1.45863283  1.12256165 -3.15928649
H  1.23560521 -1.01667469 -2.09953349
H  0.00536524 -1.56335003 -3.18745073
H  1.42664325 -3.17551504 -4.30482751
H  3.08127263 -2.56264867 -4.77602329
H  2.60664394 -2.95392678 -2.99312907
