30

C  0.2298741  -0.78919609  4.42460336
O -0.80383008 -0.36550991  3.48665087
C -0.29665463  0.28782584  2.35397031
C -1.40817997  0.41298766  1.39039331
O -0.89547481  1.06838022  0.24301559
C -1.767343    1.17083188 -0.88500704
C -0.98589816  1.93697763 -2.00439375
O -0.78454243  1.01823876 -3.07580511
C  0.4763705   0.45680342 -3.15382594
C  0.70096345 -0.61150247 -1.96767259
O  1.99590771 -1.16069288 -2.21845518
C  2.33342865 -2.06276421 -1.2466513 
H 0.76016187 0.13348802 4.85942963
H -0.22523461 -1.38512794  5.30267836
H  0.99543772 -1.41149606  3.91791725
H  0.46744302 -0.31503069  1.89701494
H 0.11319797 1.25449837 2.7819463 
H -2.19351085  0.84868341  1.78424869
H -1.74402301 -0.52162661  1.06272646
H -2.71579256  1.63558978 -0.74025605
H -2.04645107  0.15949619 -1.26273851
H -1.67697861  2.71899699 -2.19449287
H -0.03494611  2.15750977 -1.54998959
H  0.50587781  0.09382356 -4.18506505
H  1.21654386  1.25290778 -3.17524062
H  0.50994085 -0.03470381 -1.18741871
H -0.11030157 -1.43710202 -2.06891785
H  1.6651729  -3.00095515 -1.27354667
H  3.39431962 -2.35039245 -1.48651944
H  2.38148557 -1.74432409 -0.19846101
