30

C -0.27920143 -0.21235108  4.32481233
O  0.45801782 -0.73923307  3.19299016
C 0.52177201 0.03486796 2.03615756
C -0.85198342  0.33737653  1.40003895
O -0.5962964   1.04486091  0.16775165
C -1.74846689  1.23620051 -0.66024468
C -1.29210631  2.02143882 -1.91271024
O -0.64324219  1.15220757 -2.88361773
C  0.61464328  0.63250189 -2.58440312
C  0.53666146 -0.83039361 -2.15362335
O  1.88452857 -1.23382747 -2.00693202
C  2.0476641  -2.53753073 -1.36254267
H -1.30984732 -0.06654261  4.17866112
H -0.14138284 -1.0062488   5.01052037
H 0.24516681 0.76569213 4.5894553 
H  1.04630391 -0.56833269  1.35447752
H 0.99481127 0.97196765 2.26877877
H -1.51430974  1.06863218  2.02107957
H -1.40338484 -0.61433759  1.28663285
H -2.52379545  1.74585129 -0.02153085
H -2.16021705  0.27127753 -0.78936731
H -2.05996761  2.49176987 -2.39620109
H -0.64037183  2.78446597 -1.6065364 
H  1.24408793  0.69389922 -3.47093026
H  1.15752571  1.32065968 -1.77563554
H -0.03838912 -0.85090076 -1.18783457
H  0.03440261 -1.43955617 -2.94444133
H  1.48811422 -3.27640184 -1.98055874
H  3.12185376 -2.72078942 -1.33971328
H  1.58469456 -2.52863356 -0.27352466
