30

C  0.27417004 -0.73886737  4.33800487
O -0.68901524 -0.47643582  3.36366878
C -0.2030281   0.2376121   2.24864829
C -1.38211997  0.33579108  1.26339254
O -0.92127575  1.12842812  0.18919891
C -1.86731797  1.22836465 -0.89797416
C -1.16629638  1.93203501 -2.07552941
O -0.72707964  0.98861854 -3.06730802
C  0.58178439  0.48492042 -2.96977488
C  0.67963712 -0.55825622 -1.87507233
O  1.96515456 -1.21364937 -2.05640491
C  2.29442314 -2.07437931 -1.10208369
H 0.59080031 0.21580024 4.85465082
H -0.18098104 -1.4448015   5.06428626
H  1.23862754 -1.21270031  3.90097462
H  0.77972604 -0.17358496  1.76938572
H 0.16849822 1.27402446 2.58592065
H -2.25392252  0.95166818  1.66907526
H -1.85491093 -0.59996884  1.04156108
H -2.71233805  1.80415949 -0.55852471
H -2.17205538  0.26496873 -1.23846589
H -1.93092343  2.60701898 -2.60959286
H -0.20945792  2.37301451 -1.67126706
H  0.82519846  0.05763763 -3.91495882
H  1.26604096  1.23594264 -2.74260921
H  0.65860362 -0.08889599 -0.87178601
H -0.11725447 -1.2701089  -1.94493043
H  1.56668295 -2.88051959 -1.08809587
H  3.33429775 -2.38052622 -1.39596164
H  2.19848052 -1.76062689 -0.11530024
