30

C  0.07726142 -0.57144688  4.67805219
O -0.82252008 -0.41959194  3.59044668
C -0.29965537  0.33844642  2.52206019
C -1.4489622   0.38574119  1.40284722
O -0.87559393  1.11828649  0.35547084
C -1.70901128  1.14062532 -0.82463476
C -0.98485495  1.89541804 -1.90448127
O -0.77021996  1.05186955 -3.05420575
C  0.5335101   0.48196429 -3.19944501
C  0.75385286 -0.60623286 -2.162062  
O  1.93363974 -1.22025117 -2.47546153
C  2.38944972 -2.18656131 -1.56969732
H 0.34388567 0.32118265 5.227088  
H -0.42821362 -1.21237032  5.35186322
H  1.0547147  -1.12772857  4.29138928
H  0.58684727 -0.15508567  2.10918596
H -0.13987382  1.38862967  2.92313301
H -2.32961115  0.73165139  1.92745415
H -1.6182738  -0.64893379  1.21250427
H -2.6989263   1.57087729 -0.55336094
H -1.815739    0.12380636 -1.18584426
H -1.54438364  2.76609663 -2.30967454
H -0.1376003   2.24669149 -1.56205888
H  0.65593576  0.11818095 -4.25464866
H  1.2337015  1.2527922 -3.1159375
H  0.8108869  -0.2108021  -1.13213324
H -0.13357897 -1.23472505 -2.27340059
H  1.61200754 -2.91636462 -1.46852906
H  3.29466977 -2.63578576 -2.03377319
H  2.6767621  -1.89850127 -0.53693385
