30

C  0.99402112 -1.08514515  3.39397099
O -0.03228379 -0.78655844  2.52739055
C -0.00523927  0.43355404  1.86006741
C -1.38555285  0.62080992  1.18553332
O -1.06097392  1.41127492  0.04419349
C -2.00404134  1.27780551 -1.04516914
C -1.35633079  1.86901723 -2.33984392
O -0.51450923  0.94621246 -2.93233547
C  0.6750944   0.69297545 -2.28363344
C  0.62004046 -0.75859535 -1.73388648
O  1.72109202 -0.9196532  -0.85465209
C  1.69779849 -2.16330296 -0.13428961
H  0.98923891 -0.50912004  4.36761465
H  0.8111803  -2.0498065   3.73718515
H  1.97962794 -0.98849604  2.84369898
H 0.79680192 0.3599081  1.13668474
H 0.1728073  1.32055177 2.45626099
H -2.11628134  1.24215842  1.69911661
H -1.68477241 -0.38164635  0.84756545
H -2.95323168  1.89147545 -0.83578607
H -2.24720304  0.21723323 -1.25130942
H -2.20265863  2.1213896  -3.089172  
H -0.8546688   2.74851952 -1.90657987
H  1.46201039  0.81481181 -3.08419011
H  0.9789898   1.41069896 -1.51178861
H -0.36368794 -0.80986819 -1.11726487
H  0.5414003  -1.55827042 -2.46101781
H  1.7932319  -3.05071388 -0.7650073 
H  2.58375906 -2.1245054   0.5151299 
H  0.76976495 -2.29560768  0.57870826
