30

C  0.53623831 -0.6304385   4.16188112
O -0.4805615  -0.32037797  3.26475262
C -0.06514397  0.30274303  2.05713316
C -1.38849493  0.48660863  1.2006766 
O -0.9547633   1.09157699 -0.02495186
C -2.00167019  1.22296022 -0.98481724
C -1.38828984  1.93612525 -2.1776743 
O -0.52476969  1.07605525 -2.89192724
C  0.70657186  0.67489711 -2.29947234
C  0.69308715 -0.80349682 -1.94975947
O  1.98712864 -1.07004174 -1.53612487
C  2.12593119 -2.35000252 -0.99941759
H 0.9826882  0.23690464 4.56049579
H  0.03379203 -1.06601536  5.01715429
H  1.29840177 -1.25101713  3.75806237
H  0.62212432 -0.1723999   1.52714403
H 0.41134996 1.26003163 2.34058545
H -2.01313579  1.11691515  1.88045944
H -1.84041783 -0.4828705   1.1293846 
H -2.80033813  1.79983823 -0.61876751
H -2.4176846   0.20707345 -1.19259196
H -2.16791582  2.37386762 -2.78551571
H -0.8648613   2.78775291 -1.80044976
H  1.40311262  0.91894997 -3.11367074
H  0.8307661   1.30392373 -1.42355575
H -0.06590905 -0.92607462 -1.14690711
H  0.35996189 -1.30854323 -2.83397748
H  1.92493706 -3.0422399  -1.80329688
H  3.08950828 -2.4090053  -0.69837433
H  1.39354389 -2.51674102 -0.1417221 
