30

C -0.39227986 -0.48198655  4.03737924
O  0.7643951  -0.41714524  3.21489529
C 0.65700758 0.26683623 2.04136757
C -0.72923671  0.61533719  1.50103272
O -0.51950984  1.19001389  0.19776161
C -1.72589418  1.41798463 -0.57958055
C -1.29365743  1.96445522 -1.87780839
O -0.79033388  1.02838674 -2.81375656
C  0.56373524  0.62467906 -2.56465453
C  0.52688282 -0.8700509  -2.06992044
O  1.87790803 -1.33049531 -1.95904203
C  2.03568988 -2.58072354 -1.33069668
H -1.29170162 -1.06955029  3.61400377
H -0.09010155 -0.95265293  4.98532354
H -0.83243343  0.52728735  4.16042117
H  1.0497252  -0.38630431  1.26799319
H 1.29984987 1.16688398 2.11662527
H -1.20580374  1.37410575  2.15075129
H -1.29539928 -0.38043562  1.40867044
H -2.34461813  2.08960878  0.01587503
H -2.29836695  0.51716726 -0.5638869 
H -2.17838199  2.36741301 -2.26766681
H -0.56361728  2.76390483 -1.79224015
H  1.13485854  0.81125323 -3.57610689
H  1.14515853  1.24911392 -1.82398331
H  0.05545555 -0.870046   -1.15028369
H -0.05106541 -1.50049295 -2.79626419
H  1.38795188 -3.37311904 -1.91529644
H  3.06522236 -2.87904243 -1.40674181
H  1.79876537 -2.65653934 -0.19104648
