30

C  0.50976578 -0.83830218  4.1126301 
O -0.5411807  -0.31417855  3.26176776
C -0.10673327  0.25548893  2.06517185
C -1.3773937   0.62219233  1.22439278
O -0.93594794  0.96034413 -0.02150809
C -2.0272333   1.38905428 -0.89210572
C -1.46442266  1.86370273 -2.25171204
O -0.6434395   0.892909   -2.93725583
C  0.64932707  0.6647185  -2.49300706
C  0.73408728 -0.77034752 -1.92934234
O  2.09024826 -0.98108219 -1.4678594 
C  2.29086159 -2.20556122 -0.81170663
H  1.37610538 -0.14366187  4.26162531
H -0.02671626 -0.87020011  5.17412833
H  0.89139681 -1.81376973  3.77657292
H  0.43411466 -0.42225726  1.43312772
H 0.51369397 1.10727276 2.23941804
H -1.90043999  1.49766411  1.68685966
H -2.18671412 -0.25393963  1.28337371
H -2.60351563  2.24370833 -0.47273133
H -2.70095594  0.55068007 -0.97792049
H -2.40030049  2.22667511 -2.7790818 
H -0.89232334  2.79222067 -2.02370021
H  1.28481525  0.76008545 -3.419647  
H  1.03137077  1.34244526 -1.73138607
H  0.01423079 -0.89548328 -1.00051435
H  0.48222987 -1.32970548 -2.75121283
H  2.07643564 -3.0896406  -1.48775667
H  3.32789961 -2.34970446 -0.42516249
H  1.61842112 -2.30721487 -0.00909369
