30

C 0.85802095 0.66784801 2.20749786
O -0.15623362  0.01255156  2.93091361
C -0.87854259 -0.92428669  2.25352605
C -1.88344124 -0.32650663  1.20890001
O -1.22541953  0.61481516  0.40301789
C -1.96260539  1.1050857  -0.73323071
C -1.10043295  2.0894937  -1.47425055
O -0.18053001  1.4502664  -2.30884315
C  1.01658645  0.98692954 -1.69854478
C  0.99068593 -0.52904372 -1.59937484
O  2.11170574 -0.92908112 -0.80439403
C  2.23665709 -2.36325519 -0.63623702
H 0.58233985 1.48497153 1.60814761
H 1.60826034 0.9531592  2.96023722
H  1.35674961 -0.14617504  1.63039   
H -1.4195861  -1.45083863  3.13550341
H -0.27497501 -1.75519539  1.71661641
H -2.75753715  0.11832     1.80902685
H -2.32645578 -1.11518533  0.61646208
H -2.82493866  1.60474047 -0.36582716
H -2.29547963  0.25159257 -1.48461078
H -1.71308479  2.78466529 -2.22059552
H -0.65992445  2.75048656 -0.71208631
H  1.90764498  1.23709256 -2.46530947
H  1.32923403  1.4949205  -0.7815008 
H  0.12205979 -0.88225271 -1.11089617
H  1.0719815  -1.05371884 -2.60546496
H  2.37903857 -2.83458925 -1.6734254 
H  3.15141286 -2.51915952 -0.09114354
H  1.26225775 -2.73344802 -0.24410338
