30

C  1.02289795 -1.11687795  3.36437556
O -0.03561129 -0.86652025  2.42682003
C -0.07180424  0.46985217  1.97431618
C -1.37693491  0.67923415  1.20514619
O -1.04043479  1.39441441 -0.01767209
C -2.03390768  1.35037921 -1.03261728
C -1.36977697  1.82338932 -2.33371976
O -0.55128617  0.91817467 -2.94027328
C  0.73189505  0.59104856 -2.32269793
C  0.63122471 -0.76941809 -1.69529349
O  1.78970384 -0.93821462 -0.89589375
C  1.72048594 -2.10634985 -0.14239325
H  0.83118954 -0.34658818  4.18324583
H  0.8986081  -2.15567779  3.84834201
H  2.02411037 -1.04502249  2.89270519
H 0.6871715  0.77865643 1.2772471 
H -0.0119788   1.14874314  2.85634631
H -2.1130751   1.24231087  1.76817965
H -1.83860622 -0.33424221  0.94805276
H -2.94959763  2.05851264 -0.82942583
H -2.38043275  0.32532748 -1.27693181
H -2.1267103   2.07406795 -3.13249523
H -0.78816343  2.76776193 -2.1118478 
H  1.42519063  0.61927912 -3.18029727
H  1.07547575  1.45009882 -1.60121541
H -0.2314994  -0.76604732 -0.96509522
H  0.49479662 -1.60083381 -2.31054422
H  1.70247986 -2.95370683 -0.79083793
H  2.63490189 -2.06393389  0.38684279
H  0.94452503 -2.21945741  0.44842994
