30

C 0.90156939 0.56891723 2.24792729
O -0.05004646 -0.14556822  2.94460438
C -0.90663645 -0.95875438  2.16568524
C -1.91142071 -0.22483369  1.27052004
O -1.24117758  0.6009495   0.32677107
C -2.02238316  1.0795765  -0.72270084
C -1.17286988  2.06996364 -1.5049658 
O -0.17732664  1.47041008 -2.34032054
C  1.03478542  0.96832476 -1.7164473 
C  1.03723476 -0.56108377 -1.574603  
O  2.11156776 -0.93499705 -0.81476303
C  2.27070845 -2.30749785 -0.57172132
H 0.53451154 1.48900743 1.90342968
H 1.62577789 0.69784513 3.03665731
H  1.24600833 -0.01672716  1.39366053
H -1.55044438 -1.57692863  2.93865845
H -0.28649092 -1.591129    1.54153667
H -2.54318218  0.56804482  1.80627847
H -2.56326737 -0.97609846  0.73604174
H -2.95695004  1.68512225 -0.44634464
H -2.46090894  0.29392769 -1.25757509
H -1.78012109  2.6509035  -2.23049343
H -0.69498836  2.76043995 -0.85025129
H  1.95064636  1.29031212 -2.32878412
H  1.16880343  1.34243126 -0.64119833
H  0.17389348 -0.87608777 -1.07845579
H  1.05229081 -1.00670185 -2.60195334
H  2.29766455 -2.82477773 -1.53683205
H  3.18810241 -2.57221166 -0.05099198
H  1.46485686 -2.58313633  0.04264394
