30

C 0.96522513 0.49313047 2.2575022 
O -0.14594717 -0.03279571  2.95055849
C -0.9661374  -0.95293965  2.22748417
C -1.921971   -0.27664307  1.29194151
O -1.24450361  0.6184356   0.3717915 
C -2.04903733  1.11344097 -0.69044098
C -1.11421118  2.09128298 -1.51148403
O -0.15560331  1.43641671 -2.35943957
C  0.97583172  0.97218937 -1.75052429
C  0.99970708 -0.56508746 -1.62660637
O  2.15823451 -0.90452113 -0.83136819
C  2.32328254 -2.30682561 -0.61796726
H 0.68754824 1.34837441 1.74417582
H 1.64574072 0.85331091 3.00554002
H  1.43963399 -0.1957972   1.70437995
H -1.59341499 -1.56436988  2.97493322
H -0.33306838 -1.78853358  1.72063511
H -2.73829696  0.22749955  1.89948979
H -2.49497012 -0.98619389  0.57724281
H -2.91423164  1.88072198 -0.38363704
H -2.31686199  0.28847735 -1.37553848
H -1.71021642  2.66043914 -2.21893097
H -0.39917969  2.69007337 -0.86059519
H  1.80300003  1.24828854 -2.28325418
H  1.16962575  1.40328166 -0.69352341
H  0.05919674 -0.84220497 -1.07921616
H  0.93776889 -0.99143293 -2.56826891
H  2.48912755 -2.75336614 -1.58806786
H  3.09244073 -2.37365258 -0.05699863
H  1.51776478e+00 -2.58371142e+00  2.16053109e-03
