30

C -1.30394804  0.65789897  5.65880617
O -1.13583736  0.00521817  4.45155528
C -1.04449676  0.899664    3.3814276 
C -0.79629388  0.06226365  2.14923679
O -0.49069709  1.01255198  1.12484324
C -0.32755432  0.37742981 -0.13208448
C -0.14110322  1.51973663 -1.13591167
O -0.43529984  1.08479171 -2.50543186
C  0.5700494   0.66675252 -3.31268405
C  0.79912494 -0.89566898 -3.12684081
O  1.74022163 -1.22666126 -4.02023771
C  1.93005864 -2.63875213 -4.09991898
H -2.21890431  1.40558015  5.70256684
H -1.49282561 -0.06440708  6.42806526
H -0.46771883  1.14837486  5.94690594
H -0.10573369  1.55328862  3.52536639
H -2.02038356  1.4067031   3.16123905
H -1.77143385 -0.49432571  1.97244323
H -0.10366939 -0.69574737  2.29567589
H -1.06106429 -0.2940531  -0.39199818
H  0.51161543 -0.37091075 -0.13996671
H -0.82311854  2.27497578 -0.81257819
H  0.75033945  1.96170704 -1.04211693
H  0.33579539  0.70842654 -4.30140878
H  1.51481693  1.08220315 -3.04199004
H  1.06458262 -1.01053455 -2.13273154
H -0.10219581 -1.4928193  -3.32895045
H  1.05373318 -3.09938388 -4.35882594
H  2.79846525 -2.9137873  -4.80336141
H  2.25334484 -3.03924833 -3.13132086
