30

C 0.38501972 0.42981482 4.39148494
O -0.66884166  0.37964892  3.41776532
C -0.32957317 -0.39134075  2.28904454
C -1.41556544 -0.14563853  1.1848923 
O -0.91447655  0.72952097  0.24609027
C -1.88269811  1.0840768  -0.79521863
C -1.15926408  2.06934934 -1.76192023
O -0.37900656  1.40276496 -2.71891009
C  0.78284188  0.83706552 -2.31914048
C  0.77987006 -0.6806933  -2.20565804
O  2.07074838 -1.11065814 -1.80641357
C  2.15270418 -2.48154463 -1.65593887
H 1.20191084 0.99029852 3.94500294
H 0.01765031 1.03585265 5.16301279
H  0.65965612 -0.5770996   4.81296593
H -0.38580315 -1.42432426  2.4257159 
H  0.60083388 -0.06762787  1.87692679
H -2.28483386  0.32609333  1.57448757
H -1.68416051 -1.03092551  0.67279287
H -2.67171351  1.50915964 -0.23596133
H -2.2771022   0.26039676 -1.37854031
H -1.94090449  2.53361368 -2.32617589
H -0.71177489  2.91202435 -1.32145444
H  1.57733809  1.00887076 -3.13066906
H  1.22490013  1.36992914 -1.42417799
H -0.00712739 -1.03489191 -1.53131152
H  0.55345431 -1.10968911 -3.19577826
H  1.93022431 -3.05534757 -2.6129152 
H  3.15353813 -2.71942003 -1.45139125
H  1.51912522 -2.82626087 -0.81572766
