30

C -1.59585739  0.67051384  5.70511244
O -1.22304823  0.09760412  4.46351126
C -1.04686692  0.88227421  3.34970574
C -0.6851894   0.06830371  2.19731566
O -0.34903025  0.99376238  1.12623627
C  0.09011836  0.35090327 -0.00130964
C  0.06626814  1.465827   -1.09085825
O -0.47657077  1.06748875 -2.33873731
C  0.40037941  0.59233946 -3.33929328
C  0.75874048 -0.88417146 -3.08592542
O  1.52089148 -1.20698378 -4.18426155
C  1.8493361  -2.62857686 -4.27574209
H -2.63498795  1.21096679  5.63138764
H -1.56598542 -0.16923809  6.47902711
H -0.82910855  1.37302909  6.01821448
H -0.29043036  1.71489126  3.5643911 
H -1.93147668  1.45885761  3.1015498 
H -1.47755243 -0.58302553  1.7847026 
H  0.20300606 -0.54197028  2.40326038
H -0.60484867 -0.44848394 -0.21488609
H  1.00850284 -0.06084051  0.05271796
H -0.4707973   2.2708741  -0.65464421
H  1.12078843  1.86561911 -1.24487829
H -0.12416945  0.7080962  -4.25323203
H  1.40807593  1.22607243 -3.34194431
H  1.30672085 -0.92375882 -2.17910122
H -0.12751339 -1.4723651  -3.02582522
H  0.97476276 -3.28052964 -4.31095297
H  2.38685852 -2.76440474 -5.28166592
H  2.54820555 -2.95492444 -3.4997836 
