30

C  1.02186347 -0.99836092  3.27242277
O -0.01119709 -0.75440433  2.31514207
C -0.29356491  0.66679154  2.15865849
C -1.5033935   0.75799363  1.19832506
O -1.03589346  1.32883925 -0.00651914
C -2.02027981  1.3148906  -1.03569397
C -1.29697112  1.81763011 -2.26826818
O -0.49539539  0.91552788 -2.88178362
C  0.74749813  0.55090776 -2.2530183 
C  0.61992268 -0.80356379 -1.62161099
O  1.92554092 -1.19120415 -1.17676476
C  1.91078416 -2.36184874 -0.41500334
H  0.81078944 -0.52604726  4.25438666
H  1.09224562 -2.05714956  3.27662185
H  1.95903242 -0.62775607  2.87268967
H 0.53749555 1.21667011 1.83297194
H -0.55058825  1.16381414  3.13728054
H -2.19985642  1.51831103  1.60534899
H -1.81874609 -0.27101983  0.99156621
H -2.96311713  1.91904908 -0.76188065
H -2.33072115  0.26063347 -1.17927573
H -2.04788271  2.10229248 -3.08099057
H -0.74064148  2.81192279 -1.9435898 
H  1.59906617  0.52755723 -3.03087989
H  0.90173361  1.35067546 -1.49491783
H -0.01586114 -0.9901759  -0.76058875
H  0.30100516 -1.63106933 -2.36225565
H  1.59442896 -3.35063879 -0.91732717
H  2.99393944 -2.46797837 -0.23392542
H  1.33859471 -2.23998231  0.55601414
