30

C  0.49900681 -0.50106516  4.19860951
O -0.52447487 -0.33553247  3.27753195
C -0.09733123  0.14120774  1.99484853
C -1.37904655  0.44735481  1.24194728
O -0.9760198   1.13413039  0.0788589 
C -1.96533969  1.25055327 -0.90418764
C -1.36040535  1.93530564 -2.11708434
O -0.55930267  1.02520937 -2.92294564
C  0.7198177   0.76431394 -2.42307858
C  0.68001351 -0.69272427 -1.98499133
O  2.03407236 -1.07396601 -1.57565589
C  2.16239394 -2.37936027 -0.98707843
H 0.9334352  0.51040718 4.33441712
H  0.09858119 -0.7980566   5.09306136
H  1.31414044 -1.23900466  3.81675054
H  0.56389428 -0.58623272  1.49602906
H 0.46827317 1.09131237 2.03336133
H -2.05741557  1.03667958  1.81831788
H -1.82219915 -0.54622763  1.03574173
H -2.75828066  1.92084344 -0.54811312
H -2.26249036  0.33233895 -1.36124028
H -2.14957426  2.20275775 -2.788084  
H -0.78070471  2.76267694 -1.94389687
H  1.33191276  0.94172216 -3.33555693
H  1.0088205   1.39574552 -1.54458685
H  0.02159101 -0.79027707 -1.11184378
H  0.23845883 -1.2839049  -2.89000416
H  1.88597391 -3.14147004 -1.71800078
H  3.14090449 -2.62581617 -0.65110622
H  1.34857838 -2.45943732 -0.13473846
