30

C  0.44887869 -0.74095823  4.28359068
O -0.54435218 -0.47097425  3.27120356
C -0.09512501  0.26198295  2.12072239
C -1.35969171  0.42148654  1.22895712
O -0.96757842  1.14268689  0.00874177
C -2.00767005  1.18897604 -0.96939272
C -1.46835288  1.88753227 -2.15048519
O -0.56591827  1.077489   -2.95125121
C  0.72294856  0.78453616 -2.46443184
C  0.75986201 -0.6317655  -1.94927194
O  2.07170275 -0.94995982 -1.56600615
C  2.19354026 -2.26335948 -1.02553433
H  1.09699131 -1.55707532  3.80026549
H 0.9682938  0.15658611 4.64731075
H -0.06733901 -1.24634596  5.08846035
H  0.69875676 -0.32626686  1.57605167
H 0.17529585 1.29934607 2.43155477
H -1.99277505  0.98379322  1.76739812
H -1.7345132  -0.60261409  0.91489968
H -2.88315211  1.74844334 -0.54815881
H -2.22085397  0.145112   -1.12527781
H -2.18937963  2.12924658 -2.85723545
H -0.90541206  2.72259324 -1.70164625
H  1.32758493  0.90542036 -3.35872156
H  1.0594262   1.52672155 -1.69333121
H -0.04405523 -0.71244701 -1.13157989
H  0.34578456 -1.23753867 -2.76787232
H  1.9609356  -3.08539423 -1.74082117
H  3.29270387 -2.39764137 -0.92287662
H  1.69012452 -2.42838119  0.00936955
