30

C 0.96623135 0.57457777 2.21565176
O -0.1431738  -0.11997394  2.95310172
C -0.88177707 -0.95611462  2.21265083
C -1.90534087 -0.30083081  1.25283563
O -1.21564908  0.66476443  0.41926769
C -1.96739424  1.05726219 -0.76121844
C -1.11973296  2.07478305 -1.58869612
O -0.1668973   1.45885907 -2.35502254
C  1.00629241  0.91917768 -1.64186474
C  0.95086623 -0.60369028 -1.56910165
O  2.12101831 -0.9214994  -0.79202594
C  2.25702927 -2.22415028 -0.6304931 
H 0.47466171 1.57101717 1.87371706
H 1.63987488 0.89405161 2.98363119
H 1.37663069 0.04700495 1.33829711
H -1.55183998 -1.32182799  3.01601334
H -0.44735111 -1.84305071  1.68768304
H -2.70413614  0.32490719  1.64537895
H -2.24489313 -1.03942804  0.49957032
H -2.87356625  1.63474113 -0.33192534
H -2.25741811  0.20073991 -1.35388822
H -1.71239992  2.7098542  -2.35161655
H -0.57289049  2.79856996 -0.88263232
H  1.84698828  1.1035483  -2.41350423
H  1.07324609  1.26375297 -0.59736613
H -0.02578797 -0.83521279 -1.03796875
H  0.95903747 -0.8898391  -2.63188123
H  2.41219955 -2.68988387 -1.5889226 
H  3.15728921 -2.59868601 -0.13514046
H  1.4144082  -2.68731083 -0.03540711
