30

C 0.64969775 0.51324512 4.06386856
O -0.5019705   0.4872882   3.19309994
C -0.5495918  -0.5323254   2.21180571
C -1.617592   -0.2012098   1.18500752
O -1.07850113  0.68952598  0.21828947
C -1.95622185  1.08169279 -0.83371001
C -1.20154118  2.13191338 -1.68309104
O -0.362492    1.44645633 -2.5944838 
C  0.85579966  0.91343806 -2.11145478
C  0.84342226 -0.68786035 -2.03649203
O  2.11664572 -1.10350984 -1.67978514
C  2.29766151 -2.5000473  -1.65046555
H 1.5529776  0.52022446 3.55019697
H 0.60704058 1.38913821 4.68002344
H  0.46301353 -0.34311612  4.62571707
H -0.83560201 -1.4510085   2.55263004
H  0.39750304 -0.6228306   1.86594807
H -2.44323314  0.29814201  1.8336339 
H -1.81658469 -1.07636342  0.67107308
H -2.82691231  1.59078743 -0.41922144
H -2.36178182  0.32203591 -1.49597421
H -1.95658941  2.70758185 -2.16270531
H -0.54041829  2.73066763 -1.09343333
H  1.60756795  1.26714075 -2.84522501
H  1.2457503   1.37303469 -1.17671935
H  0.17417754 -0.86816809 -1.33999589
H  0.44011979 -1.22928374 -2.91505245
H  2.10666719 -2.94070847 -2.58034689
H  3.22800932 -2.73792058 -1.25327669
H  1.53871185 -2.9583492  -0.93457452
