30

C  0.51446297 -0.70508482  4.12485851
O -0.55375713 -0.49096381  3.26224922
C -0.18082814  0.24913232  2.10627928
C -1.3657845   0.34027507  1.1951881 
O -0.9550829   1.09608503  0.07676235
C -1.94607539  1.23110501 -0.93666121
C -1.43372905  1.96932929 -2.17223043
O -0.57778367  1.09926652 -2.9561851 
C  0.68471122  0.76217455 -2.41122701
C  0.73907807 -0.66440137 -1.99079309
O  2.01964558 -0.96440421 -1.52071731
C  2.2543421  -2.24466048 -0.97595713
H  1.30600105 -1.4300812   3.77902854
H 1.03201246 0.26351144 4.50946944
H  0.04743153 -1.09578403  5.00480022
H  0.67572559 -0.31498392  1.50612284
H 0.14415277 1.24593876 2.31642507
H -2.13640401  0.97111722  1.70337603
H -1.73663591 -0.62081863  0.91267158
H -2.7436014   1.74114213 -0.5495007 
H -2.24999863  0.2140601  -1.24102739
H -2.2828591   2.20950203 -2.92409847
H -0.92149276  2.90138263 -1.72315834
H  1.48879264  0.90806979 -3.13591535
H  0.89451777  1.32295718 -1.491623  
H -0.01128681 -0.86763293 -1.19978911
H  0.25869769 -1.35396577 -2.74164807
H  2.08820048 -3.09571681 -1.7145248 
H  3.26216605 -2.15325342 -0.60613315
H  1.64448038 -2.40792947 -0.13103437
