30

C  1.29031228 -0.19769548  2.93870545
O  0.33430402 -0.08353335  1.90136633
C -0.86403305  0.20930905  2.44507064
C -1.79657571  0.58134483  1.23215821
O -1.04359576  1.24398783  0.2273186 
C -1.8127258   1.47781243 -0.90496283
C -0.84484389  1.86047051 -2.17433744
O -0.44386266  0.82398454 -2.9276333 
C  0.79292921  0.20385056 -2.55540555
C  0.61693141 -0.78861866 -1.39425131
O  1.79216215 -1.66184674 -1.50921981
C  1.8043368  -2.61074718 -0.50793439
H  1.01988633 -0.87032912  3.7202519 
H  2.33892968 -0.53799993  2.46365998
H 1.64379881 0.6641648  3.53445241
H -0.85698116  1.11365975  3.03546679
H -1.32124207 -0.65396263  3.0489207 
H -2.66544569  1.16486394  1.7705943 
H -2.20856486 -0.34767247  0.75251956
H -2.54700479  2.30558893 -0.63607835
H -2.50660494  0.58938515 -1.3287747 
H -1.59350574  2.53751675 -2.7211727 
H  0.06013035  2.42937172 -1.70471884
H  0.98612272 -0.19621533 -3.53710734
H  1.67559136  0.89132058 -2.27763359
H  0.70828443 -0.27250453 -0.47971771
H -0.27078769 -1.32911674 -1.52353868
H  1.02776714 -3.42323708 -0.53477378
H  2.78894978 -3.08805638 -0.63287627
H  1.67866222 -2.11454967  0.51701189
