30

C -0.28558318 -0.20927462  5.08817224
O -1.02780955 -0.24005796  3.93855706
C -0.523543    0.52161738  2.87797009
C -1.38697303  0.26337271  1.64081398
O -0.84090628  1.01914694  0.59110652
C -1.51455398  0.90830375 -0.67080659
C -0.77973079  1.80120474 -1.70987096
O -0.73570899  1.12091139 -2.97685604
C  0.51156139  0.5234626  -3.32485087
C  0.85567791 -0.66165999 -2.45995905
O  1.97547178 -1.25969018 -3.0577209 
C  2.49352948 -2.36827101 -2.3955961 
H -0.20651875  0.8172234   5.43934042
H -0.77882736 -0.68369494  5.88980077
H  0.7761188  -0.63305388  5.03506556
H 0.5807673  0.33165414 2.70341735
H -0.48551436  1.57327766  3.07091856
H -2.37830746  0.75400291  1.94409316
H -1.30968479 -0.78344915  1.41769218
H -2.56316022  1.23266859 -0.50599884
H -1.47813186 -0.15519989 -1.04597878
H -1.13376692  2.77995631 -1.75309067
H  0.24954749  1.88692175 -1.37850548
H  0.39165153  0.06016093 -4.3297772 
H  1.29390114  1.30352944 -3.33676347
H  1.04705475 -0.3420539  -1.52928968
H  0.04141626 -1.37055797 -2.38807966
H  1.67796289 -3.19158697 -2.38848278
H  3.32784486 -2.75835188 -2.96862648
H  2.82641339 -2.00660345 -1.4289961 
