30

C -0.19468489 -0.11490427  4.38974176
O  0.26915002 -0.75803549  3.24022897
C  0.42906322 -0.00830399  2.05462095
C -0.90365785  0.31213522  1.37810298
O -0.62962349  1.0352166   0.22409123
C -1.7645354   1.2771825  -0.64504982
C -1.25011148  1.97791291 -1.87907506
O -0.67147038  1.126141   -2.85004722
C  0.63543429  0.64290988 -2.59080932
C  0.55664801 -0.81804673 -2.18149656
O  1.9404088  -1.23582036 -1.99077364
C  2.13656896 -2.61091148 -1.56617126
H -1.24348511  0.30777337  4.24191861
H -0.18844787 -0.78940892  5.16570664
H 0.30132164 0.74577911 4.72229434
H  1.0222111  -0.55703615  1.32572485
H 0.76614887 1.04390323 2.14316668
H -1.42899536  0.92306254  2.14285244
H -1.39803147 -0.60401117  1.23005854
H -2.52410674  1.94193493 -0.13037064
H -2.16306296  0.30781256 -0.98477255
H -2.08058952  2.39915591 -2.4154676 
H -0.58778803  2.82562556 -1.49372744
H  1.32146358  0.69928707 -3.45701561
H  1.14384105  1.27668523 -1.85066836
H -0.04160799 -0.90339591 -1.18919962
H  0.07199625 -1.39497217 -2.97191055
H  1.80856245 -3.31358021 -2.39495181
H  3.26472884 -2.63664908 -1.33415244
H  1.51541166 -2.69781025 -0.73391409
