30

C  0.20925603 -0.29290023  4.41514508
O -0.23430173 -0.80351422  3.15238529
C  0.19346003 -0.0421138   1.96386593
C -1.12126592  0.40576136  1.31576597
O -0.7967966   1.12885269  0.10758376
C -1.85438488  1.2638644  -0.81883612
C -1.33378307  1.96756532 -2.04833138
O -0.64363057  1.08366859 -2.90234325
C  0.67974613  0.70529538 -2.45356461
C  0.5973578  -0.80303225 -2.12661047
O  1.98954285 -1.11674429 -1.82789807
C  2.17026973 -2.43835907 -1.25075205
H -0.33454595  0.62370316  4.62122893
H -0.04787434 -1.00192201  5.19333809
H  1.28232472 -0.14284782  4.40415518
H  0.78570542 -0.69499013  1.26351038
H 0.82625476 0.8565137  2.27401313
H -1.75046815  1.10670753  1.93682642
H -1.54994426 -0.56641669  1.12048935
H -2.62278808  1.73964792 -0.30925824
H -2.23610763  0.21650233 -1.14366085
H -2.18713889  2.43625345 -2.61372333
H -0.6600234   2.63844382 -1.68910629
H  1.28143933  0.85086242 -3.31413479
H  1.03543617  1.31351675 -1.63646768
H -0.03652146 -1.0063156  -1.3215832 
H  0.22802781 -1.44048774 -3.01256173
H  1.91988784 -3.23150982 -1.96421944
H  3.32227558 -2.33256373 -1.07572126
H  1.55569699 -2.44202645 -0.35375903
