37

C -2.3305  -1.06797  2.50012
O -2.09824  -0.928924  1.11195 
C -1.40149  -1.98887   0.542958
C -1.50018  -1.66194  -0.948882
O -0.961422 -2.78751  -1.55541 
C  0.0322523 -2.60171   -2.60058  
C  1.44585 -2.52458 -2.18979
O  1.9837  -1.24754 -2.15874
C  1.86018  -0.619802 -0.956973
C  1.474     0.784062 -1.21801 
O 1.3193    1.37138   0.0575192
C 0.231075 2.29484  0.180347
C 0.500054 2.97188  1.54598 
O -0.683836  3.42934   2.02753 
C -0.81814  3.41786  3.38899
H -1.39971 -1.29281  3.0822 
H -3.08982 -1.89682  2.73937
H -2.79102  -0.138289  2.82983 
H -1.82343  -3.04508   0.644735
H -0.410977 -2.30689   0.905055
H -2.58614 -1.60438 -1.20926
H -1.00559  -0.798643 -1.21003 
H -0.0650346 -3.53092   -3.18278  
H -0.26954 -1.81619 -3.36026
H  1.49409 -3.03107 -1.27017
H  2.14043 -3.27216 -2.70587
H  2.9704   -0.748304 -0.519618
H  1.09933  -1.14415  -0.297853
H  0.543761  0.850887 -1.69066 
H  2.18904  1.25064 -1.91414
H -0.73796   1.67124   0.254166
H  0.147511  3.02237  -0.597005
H 1.30209 3.74196 1.43443
H 0.976413 2.25069  2.23916 
H 0.0496547 3.72504   3.93129  
H -1.53417  4.22093  3.696  
H -1.19385  2.44549  3.59568
