37

C -5.07943 -4.17611 -1.54098
O -4.98488  -2.88442  -0.899438
C -3.84891   -2.61053   -0.0513712
C -2.61252  -2.02806  -0.859211
O -1.7225   -1.61035   0.129573
C -0.420276 -1.17731  -0.188884
C  0.526146 -1.81812   0.835736
O  1.78221  -1.84537   0.280054
C  2.67572  -0.847754  0.758893
C  2.53839   0.363354 -0.151094
O 2.87118  1.39099  0.695589
C 2.71837  2.69136  0.155487
C 1.6068   3.42403  0.926879
O 1.72388  4.82098  0.767395
C  1.26612   5.14752  -0.526661
H -5.88011 -4.35651 -2.2727 
H -5.0213   -5.03448  -0.876154
H -4.10947 -4.24897 -2.17499
H -3.39034  -3.47205   0.384728
H -4.00235  -1.89102   0.740617
H -2.13566 -2.68888 -1.63349
H -3.04746 -1.15812 -1.3473 
H  0.0276342 -1.4499    -1.13576  
H -0.480186  -0.0886783 -0.215588 
H  0.382825 -1.25949   1.76071 
H  0.376637 -2.82569   1.07985 
H  3.66631  -1.32758   0.645507
H  2.64969  -0.464926  1.80984 
H  1.47601   0.416995 -0.624434
H  3.17738   0.340339 -1.08562 
H  2.56997  2.67818 -0.96889
H 3.62257 3.28237 0.39229
H 1.69173 3.22504 2.00375
H 0.645683 3.03722  0.557082
H  0.327286  5.59852  -0.599872
H  1.96107  5.83716 -1.02595
H  1.20739  4.26891 -1.12382
