37

C -4.88136  -0.117066 -1.51311 
O -5.14144  -0.759919 -0.333139
C -5.77068   0.1073    0.581244
C -5.03764  -0.120198  1.91122 
O -3.72398   0.541938  1.92355 
C -2.58526  -0.263507  1.48637 
C -1.26494   0.511048  1.67477 
O -0.205482 -0.310725  1.2137  
C 0.824109 0.329689 0.468269
C  1.74717  -0.72233  -0.091623
O  2.72027   0.134899 -0.78823 
C  3.96848  -0.622429 -1.19135 
C  4.87226   0.355013 -1.97038 
O  6.23207   -0.0366361 -2.29718  
C  7.03664 -0.30111 -1.17878
H -5.75149   0.256151 -2.05607 
H -4.36496  -0.780985 -2.26496 
H -4.23536   0.763761 -1.32464 
H -6.92475   -0.0274744  0.566966 
H -5.56447   1.14143   0.339123
H -5.63391   0.318466  2.72648 
H -5.03325 -1.24009  1.9684 
H -2.50968 -1.20659  2.01346
H -2.69916  -0.424455  0.337314
H -1.28464  1.46065  1.18458
H -1.14066   0.568339  2.74811 
H 1.43789 1.09217 1.05251
H  0.268237  0.871592 -0.307553
H  1.16349  -1.46465  -0.761033
H  2.13181  -1.33997   0.780804
H  3.64534 -1.52913 -1.81312
H  4.36358 -1.04438 -0.25831
H  4.91399  1.21624 -1.21809
H  4.39445  0.61213 -2.94798
H  7.28429   0.676603 -0.594776
H  6.61284  -1.04326  -0.463737
H  8.00906  -0.612356 -1.51269 
