37

C -6.41771   2.11449  -0.136272
O -5.23057   2.63866  -0.687234
C -4.23902  1.79485 -1.25573
C -3.53353   0.923835 -0.119681
O -2.4288    0.360529 -0.688904
C -1.62048   -0.439084   0.0652252
C -0.210036  0.126316  0.364978
O  0.129101 -0.16806   1.71625 
C  1.45406  -0.485728  1.96022 
C  1.68394 -1.94951  1.71978
O  2.43644  -2.10013   0.514065
C  3.81329  -2.21026   0.622451
C  4.47596  -1.63605  -0.700179
O  4.1698   -0.323315 -0.891984
C  4.43921   0.147994 -2.20556 
H -6.98678  1.76116 -1.00848
H -6.85726   2.95058   0.393894
H -6.37529   1.23434   0.558828
H -3.50783  2.42954 -1.78508
H -4.67566  1.1253  -1.99459
H -3.21557   1.65649   0.658494
H -4.33783   0.348842  0.449241
H -2.00141  -0.701754  1.10804 
H -1.53595  -1.45955  -0.346608
H  0.459526 -0.279246 -0.386945
H 0.178654 1.15604  0.23453 
H  1.66859  -0.278408  3.04307 
H 2.06364  0.159696 1.412   
H  0.628109 -2.47497   1.76604 
H  2.23765 -2.55079  2.44759
H  4.12198  -3.24177   0.689481
H  4.29544 -1.71471  1.43704
H  4.08576 -2.1835  -1.50718
H  5.56258  -1.89762  -0.602909
H  4.6549   -0.649626 -2.91371 
H  3.60955   0.755358 -2.46581 
H  5.40603   0.697216 -2.24737 
