37

C  0.10387 -1.09211 -6.72335
O -0.214859    0.00985226 -5.84324   
C -0.379485 -0.401797 -4.51525 
C -0.500093  0.91971  -3.66775 
O -0.617037  0.600526 -2.2698  
C -0.998634  1.74507  -1.45849 
C -0.422073   1.47061   -0.0807068
O -0.962747  2.37386   0.883945
C -0.17332  2.49882  2.07201
C -0.331028  1.35054   3.15878 
O 0.135318  0.0649738 2.81332  
C  0.486174 -0.815711  3.89228 
C  0.637197 -2.18497   3.30684 
O  0.887969 -3.05289   4.36879 
C  1.14631 -4.37076  3.96007
H -0.668944 -1.84594  -6.78767 
H  1.09663 -1.58427 -6.61251
H  0.187044 -0.536138 -7.70184 
H  0.551256 -1.00019  -4.28406 
H -1.28392 -1.04174 -4.44722
H  0.453799  1.47377  -3.782   
H -1.28075  1.54337 -4.03371
H -0.616242  2.63686  -1.93525 
H -2.08157  1.92935 -1.4399 
H -0.520244  0.417662  0.19598 
H  0.662251  1.56286  -0.224463
H -0.392594  3.52051   2.53318 
H 0.916724 2.58611  1.90495 
H -1.45176  1.3236   3.58616
H 0.245171 1.6158   4.02535 
H -0.363257 -0.874575  4.67505 
H  1.37972  -0.508588  4.36466 
H  1.44555 -2.22204  2.61529
H -0.306397 -2.53653   2.80779 
H  0.214436 -4.90889   3.5111  
H  2.03246 -4.64422  3.33114
H  1.35866 -4.97526  4.94038
