37

C -0.510991 -1.91906  -3.32426 
O  0.439292 -0.835059 -3.52343 
C  0.741062 -0.265429 -2.28013 
C  1.6783    0.985908 -2.28728 
O  1.89489  1.55136 -0.96809
C  3.1427    1.13042  -0.334355
C 2.97607 1.04528 1.15027
O  2.15099  -0.096188  1.391   
C  1.3003     -0.00621319  2.54001   
C  0.122686 -1.00204   2.48699 
O -0.941669 -0.404654  1.73174 
C -2.05707 -1.28087  1.63423
C -2.8772   -0.718637  0.507565
O -3.83115   0.177437  1.10148 
C -4.91007   0.453855  0.123738
H -1.47691 -1.59307 -2.87902
H -0.17921 -2.72327 -2.65276
H -0.555342 -2.39412  -4.2801  
H  1.24138 -1.03557 -1.65265
H -0.238968   0.0826594 -1.92392  
H  2.54895   0.767631 -2.89343 
H  1.15018  1.80995 -2.86833
H  3.53453   0.182557 -0.680894
H  3.8289    1.95312  -0.645551
H 3.94598  0.925805 1.626   
H 2.44777 1.93743 1.57093
H 0.877243 1.03886  2.58983 
H  1.95581  -0.140851  3.43041 
H -0.268396 -1.32786   3.44163 
H  0.48102 -1.97968  2.03384
H -2.70553 -1.27238  2.5044 
H -1.79652 -2.26625  1.26109
H -3.42209  -1.45181  -0.198769
H -2.31156  -0.134401 -0.205217
H -5.54384   -0.473932   0.0389962
H -5.53346   1.15961   0.693683
H -4.51858   0.868265 -0.815956
