37

C  1.101    5.11975 -4.87343
O  1.42841  4.66794 -3.56162
C  1.70227  3.2716  -3.42049
C  2.03697  2.96116 -1.97325
O  2.515    1.63066 -1.85802
C  2.48078   1.13094  -0.527465
C  2.47031  -0.42901  -0.575446
O  1.82046  -1.11038   0.542081
C  0.419028 -1.40066   0.400055
C -0.0597436 -2.1937     1.61208  
O -1.46924 -2.19329  1.59655
C -2.07635 -3.05272  2.5786 
C -3.55721 -2.81298  2.57346
O -4.09959 -3.64282  3.55776
C -5.47912 -3.35903  3.73258
H  0.0847695  4.8134    -5.22803  
H  1.85866  5.05213 -5.64068
H  0.817168  6.2147   -4.75282 
H  2.55175  3.08055 -4.10606
H  0.921096  2.65625  -3.75759 
H  2.81231  3.67562 -1.56685
H  1.1191   3.20518 -1.4105 
H  3.41601    1.41746   -0.0168273
H 1.56576   1.46275   0.0399713
H  1.86855  -0.770823 -1.50403 
H  3.44513  -0.861016 -0.729394
H  0.329901 -1.92717  -0.498568
H -0.205526 -0.497604  0.369975
H  0.316603 -1.86635   2.60139 
H  0.364201 -3.18709   1.57033 
H -1.65069 -2.82244  3.62923
H -1.94022 -4.1651   2.30441
H -3.86497 -3.01992  1.52889
H -3.70075 -1.77571  2.73396
H -6.11114 -3.59054  2.84582
H -5.6929  -3.98577  4.63372
H -5.73839 -2.33365  4.03561
