37

C -3.86407 -6.73161  1.30554
O -3.14151 -5.74832  1.93503
C -1.98779 -5.30734  1.3391 
C -1.59971 -3.91369  1.89871
O -0.922098 -3.23647   0.971053
C -0.932935 -1.83841   1.13048 
C -0.36131  -1.28091  -0.248178
O -0.677426   0.103474  -0.0513012
C  0.0835999  1.05903   -0.777907 
C 0.847726 2.09207  0.098266
O  1.90967   2.74294  -0.607224
C  1.77207   4.11795  -0.560803
C  2.35484  4.44703 -1.94622
O  2.16274  5.78099 -2.32773
C  3.24002  6.61146 -1.96966
H -4.37696  -6.35837   0.412168
H -4.72433 -7.14481  1.92164
H -3.20966 -7.57921  1.00778
H -2.09121  -5.04811   0.305577
H -1.14816 -6.04063  1.48021
H -2.61582 -3.514    2.1981 
H -1.06804 -3.93458  2.91847
H -1.98796 -1.44391  1.312  
H -0.351511 -1.50149   1.99755 
H  0.706707 -1.49646  -0.363168
H -0.796696 -1.83443  -1.0426  
H -0.62224  1.63432 -1.46973
H  0.880233  0.584559 -1.41386 
H 1.17516  1.55085  0.995481
H 0.183787 2.89904  0.486269
H 2.38538  4.69482  0.160369
H  0.746336  4.57401  -0.442189
H  1.9207   3.84259 -2.74006
H  3.43413  4.23277 -1.92879
H  3.59111  7.1269  -2.81332
H  2.88632  7.41814 -1.28109
H  4.00178  5.9723  -1.54196
