37

C -4.46234 -6.24217 -2.49892
O -3.1249  -5.88771 -2.04724
C -3.04134 -4.61534 -1.45116
C -1.6589 -4.0756 -1.662 
O -1.54864  -2.88497  -0.838768
C -0.446304 -2.076    -1.11717 
C  0.390579 -1.5655    0.116426
O  1.18871  -0.488539 -0.290119
C 1.39804  0.47582  0.844771
C 1.83102  1.78466  0.120547
O 2.02436 2.54752 1.25881
C 2.04589 3.96247 0.95312
C 1.48334 4.76285 2.12239
O 1.61718 6.12246 1.76443
C 1.35921 7.00848 2.8463 
H -4.54752 -6.03209 -3.57256
H -5.15371 -5.63064 -2.03744
H -4.57166 -7.28298 -2.28705
H -3.27043  -4.70092  -0.386147
H -3.80404 -3.88693 -1.77485
H -0.972552 -4.82834  -1.41078 
H -1.50975 -3.9042  -2.67738
H  0.305817 -2.62265  -1.68415 
H -0.735591 -1.23845  -1.7127  
H -0.326784 -1.23786   0.863488
H  0.996801 -2.43774   0.597823
H  2.15131   -0.0783147  1.44321  
H 0.494849 0.790356 1.36394 
H  1.0253    2.14749  -0.544145
H  2.74856   1.78507  -0.516331
H 1.43404   4.26421   0.0553693
H 3.08274  4.3965   0.812043
H 1.97975 4.54911 3.0337 
H 0.425703 4.50794  2.43716 
H 1.79213 7.98248 2.54645
H 0.293539 7.22934  2.92238 
H 1.7647  6.61956 3.78162
