37

C -1.73652 -5.069    1.62619
O -1.98632 -3.71765  1.2397 
C -1.18448  -3.19527   0.143115
C  0.112172 -2.69108   0.574386
O  0.733762 -2.0617   -0.526357
C  2.05908  -1.51303  -0.233453
C  2.5497  -0.60864 -1.42389
O  1.79105   0.578803 -1.64438 
C  0.456802  0.440979 -2.31064 
C -0.0785338  1.86658   -2.4086   
O -0.971455  2.13938  -1.34073 
C -0.298064  2.68489  -0.244784
C -1.19019   2.85225   0.905933
O -0.249004  3.30552   1.94441 
C -0.91878  3.77828  3.08665
H -0.638347 -5.33598   1.82777 
H -2.20448  -5.66979   0.904126
H -2.19663 -5.08397  2.61128
H -1.80024  -2.35828  -0.371228
H -1.01667  -3.92317  -0.625769
H  0.0672302 -1.98057    1.49303  
H  0.616423 -3.53868   0.995377
H  1.75913  -0.728628  0.526278
H  2.74138  -2.13601   0.265093
H  3.62549  -0.175672 -1.28784 
H  2.68476 -1.1259  -2.46419
H -0.223716 -0.224126 -1.80825 
H  0.575864  -0.0691503 -3.29538  
H -0.773123  1.78901  -3.28911 
H  0.654664  2.67424  -2.53298 
H  0.139428  3.57924  -0.467874
H  0.505877    1.93828    -0.00489404
H -1.59544  1.90673  1.25227
H -1.98061   3.54537   0.565326
H -0.061644  4.22268   3.67581 
H -1.6452   4.57527  2.87438
H -1.48519  2.94711  3.58438
