37

C -7.05254 -2.18309  2.10559
O -6.32052 -1.09456  1.584  
C -5.56663  -1.30566   0.364199
C -4.58302  -0.130343  0.249727
O -3.31387  -0.694272  0.459925
C -2.21375   -0.069529  -0.0607153
C -0.848031 -0.625373  0.361286
O  0.0833888 -0.0950579 -0.543224 
C  0.877223   0.959755  -0.0433567
C 2.16829  0.398569 0.640592
O 3.23073  1.22911  0.325419
C  3.74533   1.00769  -0.959416
C  5.20079   0.522752 -0.853472
O  6.00162   0.601453 -1.95292 
C  7.37621   0.489227 -1.58851 
H -7.54432 -2.76086  1.27118
H -7.81816 -1.69499  2.70061
H -6.48476 -2.85852  2.78013
H -6.17132 -1.41085 -0.50776
H -4.97247  -2.22473   0.413788
H -4.75471   0.284806 -0.717919
H -4.71802   0.624009  1.11151 
H -2.15836   -0.0803406 -1.14683  
H -2.19377   1.07301   0.166643
H -0.831649 -0.3006    1.42153 
H -0.676907 -1.71978   0.324693
H 0.394014 1.54877  0.706616
H  1.12778  1.62855 -0.81241
H  2.22724  -0.60083   0.202118
H 2.22452  0.337209 1.69944 
H  3.74578  1.93887 -1.61595
H  3.26771   0.193606 -1.52528 
H  5.23327  -0.546662 -0.570497
H  5.58945    1.11599   -0.0185465
H  7.47666   0.230025 -0.520617
H  7.93567  -0.193937 -2.18729 
H  7.81168  1.50842 -1.63982
