37

C -1.49087  -0.389874  7.73596 
O -2.03322  -0.656263  6.44855 
C -1.58554    0.0229674  5.3493   
C -1.83537 -0.70407  3.99414
O -1.66349   0.267779  2.9379  
C -0.540639  0.185809  2.05045 
C -1.11580e+00  1.24903e-04  6.72857e-01
O -0.27111   -0.92106    0.0186598
C -0.342233 -0.9646   -1.45627 
C  0.95435  -0.344249 -1.86642 
O  0.803177  0.252403 -3.13102 
C  1.48518  -0.204836 -4.33667 
C  1.37102  1.0477  -5.192  
O  2.32397  1.24533 -6.24095
C  2.67225    0.0933364 -6.91485  
H -1.89196   0.548253  8.11787 
H -0.458533 -0.234561  7.63801 
H -1.74506 -1.2027   8.37869
H -0.488306  0.209164  5.32764 
H -1.96778  1.08705  5.29797
H -1.12645 -1.54288  3.9589 
H -2.84228 -1.14446  3.99196
H 0.0731159 1.05244   2.14483  
H  0.176043 -0.641885  2.2902  
H -2.12117  -0.451855  0.682791
H -1.25791   1.0071    0.176001
H -1.20381  -0.518718 -1.9116  
H -0.543059 -2.03455  -1.65054 
H  1.69518 -1.18726 -1.80827
H  1.27097   0.308296 -1.08939 
H  1.02317 -1.0354  -4.81095
H  2.58144  -0.407022 -4.23305 
H  1.50938  1.947   -4.54707
H  0.366338  1.16185  -5.59162 
H  3.09067  -0.716325 -6.18722 
H  1.79295  -0.356678 -7.36551 
H  3.47956  0.24416 -7.67502
