37

C  7.27673  -0.539965 -1.46446 
O  6.03648 -1.05948 -1.02053
C  5.30345 -1.61853 -2.10116
C  4.03186 -2.18174 -1.42707
O  3.22197 -1.08683 -1.10361
C  1.81636  -1.34554  -0.915977
C  1.23248  -0.276156  0.020306
O -0.1534    -0.284165   0.0134011
C -0.754631  0.484985  1.00404 
C -2.24412   0.272829  0.760295
O -3.06538   0.900049  1.79405 
C -4.43638   0.573669  1.75122 
C -5.30498   1.2286    0.713565
O -6.57138  1.37151  1.24464
C -7.44829   2.17635   0.532467
H  7.86224 -1.33624 -1.92895
H  7.73621  -0.151664 -0.567621
H  7.22561   0.119377 -2.31977 
H  6.04276 -2.25196 -2.65276
H  4.92546  -0.857061 -2.82138 
H  3.48648 -2.93345 -1.96831
H  4.35451  -2.75926  -0.498329
H  1.25736 -1.25014 -1.84521
H  1.7068   -2.3842   -0.525032
H  1.76481  -0.364127  0.959691
H  1.54987   0.733698 -0.404216
H -0.499149  1.5143    1.00032 
H -0.511465   -0.00878574  1.97666   
H -2.55168 -0.76265  0.67443
H -2.44688   0.805664 -0.180323
H -4.77048   0.751417  2.75998 
H -4.62807  -0.484791  1.72958 
H -5.51574   0.643778 -0.276018
H -4.90265   2.21098   0.367058
H -8.41886  2.15967  1.00866
H -7.08557   3.19611   0.526533
H -7.65805   1.91471  -0.482417
