37

C -6.04934   0.650452 -0.987601
O -5.04945    0.360564  -0.0565804
C -5.46083  -0.636971  0.845999
C -4.28324 -1.29693  1.56544
O -3.47937  -0.416673  2.28731 
C -2.54975   0.352371  1.52689 
C -1.1364   -0.235189  1.61697 
O -0.255987  0.495846  0.720813
C  0.945971 -0.215629  0.357234
C  1.66269   0.381891 -0.881735
O  2.83197  -0.384132 -1.19489 
C  3.65562   0.217221 -2.20369 
C  5.14488  -0.336417 -2.11665 
O  5.73444   -0.0238739 -0.831008 
C  7.15667  -0.200895 -0.830397
H -6.17751  -0.187284 -1.63859 
H -5.69786  1.57596 -1.51056
H -7.03956   0.827304 -0.54179 
H -6.00434  -1.49429   0.387429
H -6.20897  -0.202634  1.65872 
H -4.64469 -2.0327   2.29318
H -3.72124  -1.83276   0.783257
H -2.78386   0.422777  0.441536
H -2.56202  1.36295  1.92122
H -0.760639   -0.00768282  2.6774    
H -1.24185 -1.32014  1.37309
H  0.81033  -1.25173   0.100909
H  1.66334 -0.27352  1.32271
H  2.0174    1.42244  -0.666101
H  0.875552  0.462321 -1.69307 
H  3.56589  1.29079 -2.10768
H  3.26196   -0.0882411 -3.18809  
H  5.77108   0.021981 -2.91397 
H  4.87783 -1.37791 -2.21509
H  7.39757  -1.30538  -0.854932
H  7.70524   0.465162 -1.46681 
H 7.44891  0.129026 0.177285
