37

C -2.58852 -6.24595  2.91954
O -3.32262 -5.10601  2.41622
C -2.54881 -3.89628  2.30014
C -3.03835 -3.15453  1.08397
O -2.01376  -2.32918   0.657601
C -2.20154   -1.1883     0.0718505
C -1.28898 -1.0964  -1.20442
O -1.01056  0.26998 -1.43875
C  0.339254  0.697166 -1.37257 
C  0.626824   1.61557   -0.0685188
O  1.93588    2.07023   -0.0660976
C  2.08502   3.29066  -0.726754
C  3.5252    3.77916  -0.791805
O  3.47515  4.8154  -1.72222
C  4.70484  5.41949 -1.96863
H -1.981   -6.02022  3.82752
H -1.88184 -6.58596  2.12954
H -3.38893 -6.97163  3.063  
H -1.51626 -4.17111  2.10991
H -2.38724 -3.30531  3.22683
H -3.40838  -3.89472   0.386617
H -3.86408 -2.56149  1.28353
H -3.22678  -0.933817 -0.236958
H -1.95104  -0.360262  0.775432
H -0.405602 -1.75076  -1.06863 
H -1.89469 -1.51801 -2.02042
H  0.629006  1.42339  -2.13952 
H  1.01473  -0.130152 -1.45408 
H 0.398163 0.981949 0.893506
H -0.155359   2.44736   -0.0704878
H  1.50402   4.0774   -0.218628
H  1.78767  3.20683 -1.83088
H  4.17646  2.9466  -1.05525
H 3.86824  4.21902  0.118078
H  5.25912  4.88247 -2.79434
H  4.47734  6.45751 -2.22991
H  5.3635   5.37733 -1.05996
