37

C  5.48908  -4.51772   0.716745
O  4.96213  -3.74832  -0.311237
C  5.05703  -2.32559  -0.185821
C  4.29551 -1.70549 -1.39475
O  2.91004 -2.06097 -1.40754
C  2.19781  -1.22102  -0.478542
C  0.662642 -1.54337  -0.447216
O -0.0214877 -0.240655  -0.297535 
C -1.47023  -0.330938 -0.203785
C -1.82236   1.15849  -0.212859
O -3.16828    1.30785    0.0965246
C -3.48533   2.64345   0.314069
C -4.98845   2.85361   0.628329
O -5.16146  4.11153  1.31095
C -6.52604  4.33858  1.42867
H  5.13782 -4.14705  1.65791
H  6.57929  -4.63909   0.695354
H  5.00505  -5.54261   0.577213
H  6.05915  -1.91316  -0.042632
H  4.49364 -1.98085  0.70191
H  4.53941  -0.668522 -1.60071 
H  4.65095 -2.29032 -2.2944 
H  2.66446  -1.21605   0.526158
H  2.30071  -0.139422 -0.85664 
H  0.410459 -2.10811  -1.37932 
H  0.577455 -2.16369   0.501478
H -1.80504  -0.797132  0.75012 
H -1.8486   -0.880778 -1.02751 
H -1.60325  1.64227 -1.15896
H -1.15177   1.67743   0.484507
H -3.12222  3.26469 -0.58216
H -2.83879  2.93464  1.14295
H -5.31345  2.02647  1.26419
H -5.43468   2.70848  -0.348662
H -6.53681  5.22815  2.03849
H -6.92458   4.62507   0.423377
H -7.00291  3.51333  2.06149
