37

C  2.83829  6.01445 -4.50868
O  1.64119  5.26022 -4.20452
C  1.69441  3.83624 -4.07228
C  0.474717  3.54954  -3.1609  
O  0.396729  2.14738  -2.9375  
C -0.201436  1.85413  -1.68624 
C -0.181656  0.322684 -1.43132 
O -0.553728   0.0401303 -0.129342 
C -0.427109 -1.32601   0.33148 
C -1.00806 -1.40396  1.72433
O -0.754264 -2.70511   2.24085 
C -1.67625 -3.2258   3.21067
C -1.05294 -4.57079  3.67666
O -1.47139 -4.89006  5.04272
C -0.910852 -6.11971   5.52863 
H  2.48833  7.0487  -4.65616
H  3.29468  5.6774  -5.43528
H  3.53278  6.02876 -3.69769
H  2.55854  3.41416 -3.49929
H  1.61634  3.25863 -5.00523
H  0.615386  4.04783  -2.1707  
H -0.470714  4.01444  -3.56251 
H  0.383986  2.33951  -0.828811
H -1.2179   2.15812 -1.65334
H -1.0325   -0.213653 -2.00823 
H  0.759156 -0.222204 -1.73667 
H  0.62834  -1.75911   0.183082
H -0.937819 -2.06993  -0.252883
H -2.13189 -1.33828  1.64154
H -0.602324 -0.619463  2.42854 
H -2.69737 -3.34381  2.74108
H -1.64851 -2.53593  4.10292
H -2.97979e-03 -4.53017e+00  3.75979e+00
H -1.38384 -5.42491  3.02891
H -1.23679 -6.88293  4.77334
H  0.18702 -6.12522  5.61414
H -1.36253 -6.46096  6.4936 
