37

C  0.790114 -7.71122  -0.868508
O  1.643   -6.55632 -1.03847
C  1.03583 -5.37305 -0.65629
C  1.85016 -4.1906  -1.08786
O  0.927366 -3.11595  -0.923409
C  1.55419  -1.84661  -0.469582
C  0.648487 -0.575701 -0.606706
O  1.50564   0.488441 -0.329455
C  0.860634  1.7868   -0.563996
C -0.175193  2.10642   0.430939
O -0.631271  3.46008   0.104637
C -1.4907   3.91293  1.11663
C -2.19245   5.23506   0.801046
O -2.89984  5.80828  1.87757
C -4.26242  5.46923  1.89898
H -0.131656 -7.62054  -1.38585 
H  0.753933 -7.99541   0.209164
H  1.35724 -8.66222 -1.33905
H  0.761013 -5.45239   0.452124
H  0.09004 -5.23362 -1.19583
H  2.75992  -4.10678  -0.482964
H  2.08162 -4.38392 -2.12611
H  1.95591  -1.87004   0.524112
H  2.44356 -1.65537 -1.12048
H  0.120385 -0.59745  -1.58006 
H -0.152837 -0.55099   0.139935
H  0.451292  1.68134  -1.61572 
H  1.65368   2.54251  -0.734989
H 0.442457 1.96721  1.2958  
H -1.0288   1.3964   0.38605
H -0.956983  4.2544    2.05527 
H -2.30204  3.1865   1.43033
H -2.85819   5.0561   -0.132518
H -1.53693   6.00799   0.342258
H -4.44605  4.44818  1.71428
H -4.64665  5.77141  2.89136
H -4.80152  5.99597  1.07786
