37

C  1.62518  4.80261 -6.29482
O  1.41275  3.63563 -5.55948
C  1.19467  3.92289 -4.12843
C  0.911737  2.52593  -3.56474 
O  0.687099  2.54325  -2.14432 
C  0.490638  1.22017  -1.58558 
C  0.362996  1.45191  -0.076297
O 0.614895 0.160953 0.499389
C  0.234834 -0.139295  1.79382 
C  0.35847 -1.63428  2.00724
O -0.365033 -2.04255   3.17793 
C -0.825609 -3.34139   3.10259 
C -1.97015 -3.7161   4.0661 
O -2.30559 -5.08317  3.89655
C -3.43102 -5.5145   4.63899
H  2.04155  4.46778 -7.2942 
H  2.48962  5.33364 -5.85105
H  0.73088  5.38699 -6.46253
H  0.417825  4.67675  -3.95265 
H  2.17706  4.37819 -3.78389
H  2.54254e-03  2.15142e+00 -4.03616e+00
H  1.84571  1.96669 -3.81089
H -0.420359  0.716007 -1.91582 
H  1.39936   0.559004 -1.70473 
H 1.22728  2.0709   0.166179
H -0.589221  1.81869   0.265216
H -0.779676  0.146936  1.98139 
H 0.879998 0.518581 2.48888 
H  1.36854 -2.03965  2.09796
H  0.0150816 -2.20759    1.10454  
H  0.052393 -3.97126   3.34199 
H -1.20092 -3.57596  2.03721
H -2.76222 -2.93889  4.02071
H -1.76121 -3.47111  5.09489
H -3.35191 -5.3163   5.71742
H -4.40665 -5.18816  4.2622 
H -3.38689 -6.59987  4.62033
