37

C -3.77557 -6.46833  1.46288
O -3.30556  -5.34843   0.716878
C -2.637   -4.42078  1.47431
C -1.70549  -3.56122   0.557206
O -0.966497 -2.6019    1.33613 
C -1.63991 -1.36979  1.47601
C -0.586379 -0.308616  1.46931 
O -1.06827   0.640161  0.623058
C -0.211311  1.19665  -0.32055 
C 0.0848475 2.65108   0.134969 
O  0.663259  3.43526  -0.899026
C  1.92201  2.96356 -1.26649
C  3.01433  4.04648 -1.49154
O  4.05044  3.58708 -2.24146
C  4.88848  4.62358 -2.80192
H -4.447   -6.1619   2.14248
H -3.01288 -7.00462  1.93267
H -4.17348  -7.19981   0.728404
H -2.06715 -4.82876  2.31834
H -3.32188 -3.79889  1.89125
H -1.05145  -4.31626   0.109814
H -2.29224  -3.06514  -0.252422
H -2.31612 -1.16034  0.68308
H -2.14975 -1.52344  2.43454
H -0.393916  0.171778  2.45107 
H  0.422642 -0.730724  1.13724 
H -0.739674  1.13526  -1.34615 
H  0.669794  0.710167 -0.44534 
H 0.752638 2.53828  0.988546
H -0.835481  3.02287   0.449362
H  1.8245   2.40566 -2.27705
H  2.31907   2.22504  -0.512224
H  3.46205   4.40451  -0.512114
H  2.51236  4.94035 -1.93395
H  5.19915  5.36974 -2.06429
H  5.76114  4.02678 -3.09393
H  4.49457  5.21373 -3.63415
