37

C -4.24455  2.50523 -2.79392
O -3.39197  2.04632 -1.75388
C -3.83931   0.914216 -1.18733 
C -3.33278   0.824891  0.234096
O -3.57348  -0.50124   0.683961
C -2.98527 -0.78486  1.95295
C -1.65289 -1.43264  1.96254
O -0.547317 -0.654348  2.19581 
C  0.0407612 -0.042708   1.10769  
C  1.59777  -0.115953  1.38795 
O 2.20783  0.337491 0.271678
C 3.65646   0.152998  0.0924209
C  3.90619  -0.844558 -1.10745 
O  5.26734 -1.04497 -1.19425
C  5.66116 -2.4462  -1.41596
H -4.54919  1.66493 -3.53212
H -3.81026  3.3801  -3.27268
H -5.16242  2.94749 -2.37671
H -3.55114   -0.0200648 -1.78972  
H -4.92299   0.803919 -1.15818 
H -2.26609   0.982537  0.260926
H -3.92961   1.5173    0.899683
H -2.89389   0.128822  2.53412 
H -3.69404 -1.46651  2.52994
H -1.51644 -2.17702  2.7131 
H -1.68106  -1.78517   0.984778
H -0.365171  1.02266   0.913531
H -0.00177559 -0.587853    0.124645  
H  1.7585  -1.09606  1.68906
H 1.83014  0.575681 2.18846 
H  4.158    -0.274015  0.925716
H  4.1665    1.13189  -0.122454
H  3.47853 -0.43338 -1.98978
H  3.38968  -1.82766  -0.888043
H  6.12363  -2.64302  -0.485564
H  4.84976 -3.08388 -1.73814
H  6.36867 -2.44967 -2.31811
