37

C -4.64524   4.83662  -0.251817
O -3.8637   4.48859 -1.3523 
C -3.19287  3.27328 -1.38244
C -2.25614   2.98217  -0.152058
O -1.89662   1.62369  -0.482191
C -1.54345   0.703228  0.603226
C -0.0145235  0.769166   0.842379 
O  0.515109 -0.133786  1.82032 
C  1.28136 -1.17946  1.38963
C  2.81551 -1.01899  1.5328 
O  3.53659 -2.2625   1.29219
C  3.26324   -2.66208   -0.0558657
C  2.40834  -3.93196  -0.235562
O  1.78731 -3.74241 -1.44161
C  0.914037 -4.81191  -1.82583 
H -4.08479   5.14785   0.593072
H -5.27171    3.96674    0.0187429
H -5.27811   5.73031  -0.444243
H -2.58778  3.29544 -2.30337
H -3.89418  2.44957 -1.3962 
H -1.39406   3.61794   0.103144
H -2.84297   3.09998   0.709985
H -2.16037   0.903396  1.48958 
H -1.75739  -0.337567  0.234962
H  0.463419  0.578416 -0.151511
H 0.08501 1.82607 1.17348
H  1.03825  -1.43953   0.350986
H  0.987703 -1.91897   2.10685 
H  3.01925  -0.659449  2.60797 
H  3.20207  -0.385634  0.794185
H  4.24224  -2.84131  -0.541044
H  2.72912  -1.94269  -0.706389
H  1.72273  -3.97437   0.646703
H  3.0904   -4.85411  -0.147359
H -0.0960355 -4.75993   -1.4538   
H  0.722534 -4.79312  -2.88191 
H  1.34463 -5.80652 -1.64623
