37

C -2.84177  -0.725748 -7.24174 
O -3.05046  -0.742054 -5.82988 
C -1.86267  -0.292112 -5.16788 
C -2.28375 -0.31792 -3.70567
O -1.12241   -0.0612946 -2.91899  
C -1.2307   -0.726867 -1.59472 
C -0.91546   0.274165 -0.458405
O -0.913486 -0.458308  0.752034
C  0.232364 -0.159518  1.51188 
C -0.0378054 -0.589246   3.02466  
O  0.901791  -0.0745956  3.9496   
C  2.10441  -0.848891  4.0322  
C  3.04531   -0.0492082  4.93359  
O 3.6327  1.04812 4.15975
C 3.21655 2.35697 4.46156
H -2.23893 -1.5645  -7.51676
H -2.32107   0.209944 -7.52242 
H -3.76411  -0.751945 -7.84693 
H -1.47063   0.679914 -5.49413 
H -0.991192 -0.944782 -5.29759 
H -3.06795   0.403724 -3.36715 
H -2.60627 -1.36112 -3.63673
H -2.25955 -1.14579 -1.373  
H -0.658303 -1.64496  -1.52981 
H  0.0202914  0.859545  -0.779566 
H -1.69238   1.05915  -0.453881
H 0.455778 0.906471 1.50523 
H  1.13127  -0.737802  1.14158 
H -0.0640813 -1.68903    2.99063  
H -1.04902  -0.305581  3.3983  
H  2.6277   -0.914562  3.02393 
H  1.9611  -1.93712  4.34061
H  3.83105 -0.5858   5.40468
H 2.48125  0.178753 5.86046 
H 3.54574 2.62749 5.47162
H 3.71896 3.00565 3.72187
H 2.20188 2.45535 4.44521
