37

C  1.06968 -3.51076 -6.8224 
O  0.484369 -2.21057  -6.98165 
C -0.190939 -1.86351  -5.75043 
C  0.65231 -1.21773 -4.55553
O -0.260081 -0.801699 -3.52822 
C  0.471101 -0.122441 -2.51163 
C -0.385928  0.293529 -1.26893 
O  0.468256  0.313592 -0.146377
C -0.338206  0.552101  1.06758 
C 0.549008 0.95539  2.2699  
O -0.48954  1.18656  3.2648 
C -0.169076  1.8398    4.44011 
C -1.08051  1.27477  5.59616
O -0.549279  1.42445   6.80514 
C -1.26182   0.799972  7.78651 
H  1.65679 -3.71627 -7.68184
H  0.252485 -4.31812  -6.8223  
H  1.60869 -3.69759 -5.98741
H -0.714395 -2.6648   -5.28963 
H -0.876308 -1.06728  -6.01727 
H  1.41558 -1.94797 -4.20175
H  1.13911  -0.384498 -4.96448 
H  1.28584  -0.827975 -2.15336 
H  0.901022  0.763137 -2.93155 
H -0.918256  1.21301  -1.42376 
H -1.14177 -0.52025 -1.14065
H -0.964539 -0.306588  1.24173 
H -0.99853   1.42754   0.973931
H 1.14901 1.80387 1.96241
H 1.294    0.199187 2.36714 
H -0.249508  2.96523   4.24644 
H 0.799255 1.76559  4.88631 
H -1.29779   0.235134  5.28933 
H -1.97585  1.84205  5.50761
H -0.757533  0.849303  8.76648 
H -2.18533  1.32977  7.97645
H -1.57273  -0.268466  7.5421  
