37

C -0.380667 -4.63193   5.05967 
O -0.572417 -3.90543   3.85249 
C  0.537226 -3.73426   2.93056 
C -3.01718e-03 -3.15398e+00  1.64241e+00
O  0.466653 -1.84279   1.46376 
C -0.446846 -0.999263  0.861221
C -0.39413   0.300626  1.67434 
O -1.22682  1.22173  1.0188 
C -0.457659  2.16762   0.406075
C -1.27123   2.78471  -0.769516
O -0.376635  3.24273  -1.77425 
C -0.201582  2.30196  -2.77171 
C  0.877406  2.73903  -3.67319 
O  0.918611  2.04491  -4.93862 
C  1.27612   0.680202 -4.82566 
H  0.698534 -4.80499   5.13336 
H -0.988787 -5.59286   5.01361 
H -0.670266 -3.97127   5.90463 
H  1.12369 -4.62527  2.88601
H  1.31754 -3.0541   3.31668
H  0.129959 -3.81004   0.781544
H -1.0948  -3.29802  1.77684
H -0.260937 -0.780926 -0.199714
H -1.44712  -1.3854    0.632369
H -0.774684  0.175445  2.68327 
H 0.738986 0.503215 1.72561 
H  0.495863  1.90375  -0.119546
H -0.0537504  2.89296    1.14674  
H -1.94415   3.64806  -0.466089
H -1.94144  2.0082  -1.20666
H -1.08812  2.10337 -3.38344
H -0.0774539  1.27487   -2.29899  
H  1.85364  2.48987 -3.135  
H  0.965104  3.83296  -3.97067 
H  1.89799  0.54858 -3.96965
H  0.367043   0.0529389 -4.76244  
H  1.80889   0.312439 -5.76159 
