37

C  0.014501 -2.56905  -7.01444 
O -0.614572 -1.73079  -6.11052 
C  0.234236 -1.43675  -5.02702 
C -0.661789 -0.462689 -4.22554 
O  0.0305008 -0.148827  -3.01011  
C -0.679931  0.670781 -2.16491 
C  0.150671  0.641974 -0.833962
O -0.448295  1.44087   0.181916
C 0.443464 1.45794  1.28205 
C -0.424335  1.53576   2.50788 
O 0.376271 1.48941  3.68931 
C -0.279537  1.32852   4.91601 
C -0.619029 -0.177898  5.11977 
O  0.638234 -0.811908  5.13331 
C  0.660779 -2.16543   5.39113 
H  0.791571 -2.1058   -7.67308 
H -0.731539 -2.8652   -7.70866 
H  0.424001 -3.48005  -6.53507 
H  1.11417 -0.99529 -5.42697
H  0.490478 -2.3498   -4.44831 
H -0.78425   0.458892 -4.8909  
H -1.62967  -0.911898 -4.13763 
H -0.629501  1.77472  -2.43893 
H -1.68083  0.31547 -1.85656
H  0.293756 -0.381372 -0.521515
H  1.14951  1.02873 -1.01136
H 1.10951 2.35393 1.24203
H 1.05157  0.574159 1.32158 
H -1.18303   0.672705  2.44778 
H -1.02446  2.46512  2.44268
H -0.978037  2.11819   5.04921 
H 0.546589 1.45607  5.69692 
H -1.12197 -0.58329  4.20442
H -1.05939  -0.336017  6.08641 
H  1.73194 -2.35776  5.57499
H  0.102544 -2.51078   6.35144 
H  0.332718 -2.72719   4.49296 
