37

C  0.94303  6.72989 -4.30618
O  0.838839  5.36714  -4.27795 
C  1.06053  4.81928 -2.97658
C  0.771446  3.33104  -3.07824 
O  1.05508  2.576   -1.88523
C  0.1948   1.38807 -1.83449
C  0.40082   0.613004 -0.58265 
O  0.0573097 -0.786424  -0.806277 
C  0.291976 -1.60536   0.284333
C -0.809438 -1.55431   1.3781  
O -0.403148 -2.50967   2.34284 
C -1.4486  -3.26964  2.97936
C -0.733902 -4.46903   3.65125 
O -1.79933 -5.32514  4.12401
C -1.43819 -6.5916   4.6787 
H  0.875162  7.03665  -5.38478 
H  1.85416  7.14126 -3.85424
H  0.103995  7.14133  -3.69705 
H  0.483187  5.28853  -2.1546  
H  2.0491   5.01111 -2.76109
H -0.286389  3.26327  -3.36034 
H  1.2697   2.81572 -3.94984
H -0.861283  1.67145  -1.99689 
H  0.400856  0.850832 -2.70207 
H  1.45718   0.800236 -0.345321
H -0.146426  1.13518   0.158441
H  1.20378 -1.28377  0.80151
H  0.239995 -2.58729  -0.162553
H -1.78587  -1.81824   0.963343
H -0.955124 -0.560742  1.89966 
H -2.2566  -3.69933  2.36273
H -2.03424 -2.69006  3.7122 
H -0.121364 -4.20647   4.49712 
H -0.0533896 -4.93653    2.96468  
H -0.665795 -6.65253   5.44191 
H -2.32398 -6.97378  5.18734
H -1.11492 -7.35112  3.88496
