37

C -0.747147 -5.44699   4.59222 
O -1.58383 -4.39196  4.01288
C -0.842103 -3.31596   3.44253 
C -0.306571 -3.78801   2.05511 
O  0.133817 -2.76474   1.23837 
C -0.77362 -1.65354  1.00421
C -0.123962  -0.755926   0.0161073
O -1.03109   0.208241 -0.198223
C -0.848127  1.17374  -1.22331 
C -0.397037  2.51749  -0.504872
O -0.467968  3.60005  -1.39234 
C  0.783213  4.193    -1.76444 
C  0.962449  4.12878  -3.32053 
O  1.26657  2.82007 -3.90703
C  2.65434  2.585   -3.96208
H  0.109236 -5.65791   3.89932 
H -1.43656 -6.26049  4.82813
H -0.360192 -5.01387   5.4802  
H  0.0222705 -3.04205    4.0212   
H -1.43758 -2.3979   3.37854
H  0.580638 -4.42853   2.16066 
H -1.07972 -4.47546  1.64942
H -1.80887  -1.99682   0.627826
H -1.05917  -0.971333  1.80338 
H  0.869017 -0.445318  0.544659
H  0.0595281 -1.2347    -0.944755 
H -1.81829  1.22122 -1.6977 
H -0.0700087  0.984399  -1.9878   
H  0.572105  2.21752  -0.161209
H -0.84409   2.77745   0.460987
H  1.57923  3.6661  -1.27675
H  0.706152  5.20286  -1.40356 
H  1.69886  4.93041 -3.65093
H -0.0282231  4.35123   -3.66154  
H  3.12293  2.59369 -2.92361
H  2.78173  1.59374 -4.5075 
H  3.2126   3.18157 -4.62434
