37

C -1.14865  -6.44249  -0.130977
O -0.918783 -5.04213  -0.240617
C -2.02638  -4.27444  -0.318686
C -1.88583  -3.08462   0.652657
O -2.67632  -2.039     0.125623
C -1.97844  -0.986341 -0.470146
C -2.56443   0.449488 -0.219445
O -1.71806   1.36531  -0.745796
C -1.0595    2.30359   0.137479
C  0.461906   2.08689   -0.0485381
O 1.04697 2.77433 1.03053
C 1.73161  3.91283  0.716739
C 3.275    3.59702  0.691302
O  3.8938   3.03781 -0.49575
C  4.18129   1.59466  -0.511662
H -1.89724  -6.60357   0.631837
H -0.236375 -6.95716   0.13376 
H -1.51727 -6.90605 -1.06053
H -2.96484   -4.85466   -0.0543835
H -2.14998 -3.89211 -1.36404
H -2.2517  -3.39325  1.62052
H -0.784369 -2.79304   0.70352 
H -0.887306  -1.03261   -0.0260519
H -1.99389 -1.09017 -1.55156
H -3.54909   0.681664 -0.610798
H -2.83389   0.436158  0.814456
H -1.11331  2.09302  1.18283
H -1.47738    3.36282    0.0319204
H  0.842582  2.47163  -1.09934 
H  0.82719  1.06008 -0.11562
H 1.50249 4.54905 1.54766
H  1.4118    4.4165   -0.195747
H 3.38945 2.75402 1.38046
H 3.75638  4.52549  0.986024
H  3.84489  1.18998 -1.50617
H  5.27867   1.58137  -0.417131
H 3.76319  1.01339  0.295766
