37

C -2.17628 -5.72848  5.48981
O -1.23865 -5.34167  4.55325
C -1.57294 -4.13126  3.89425
C -0.817162 -4.14499   2.55409 
O -1.14673 -2.97329  1.79338
C -0.177083 -2.42426   0.971835
C -0.389251 -0.875099  0.932699
O -0.00562254 -0.467976   -0.386018  
C  0.20299   0.983337 -0.531525
C -0.155432  1.49752  -1.96098 
O  0.680858  2.54617  -2.26471 
C  0.264241  3.69296  -2.95842 
C  1.62928  4.31404 -3.56266
O  1.32953  5.68446 -3.91218
C  2.39448  6.25125 -4.53835
H -1.89076 -5.44785  6.45351
H -2.11713 -6.83335  5.45914
H -3.22391 -5.41041  5.31303
H -1.3815  -3.25038  4.57633
H -2.66695 -4.00942  3.67949
H  0.235846 -4.19336   2.81062 
H -1.23378 -4.99073  2.04898
H  0.834813 -2.57244   1.38777 
H -1.46469e-01 -2.91768e+00 -8.46499e-04
H -1.38682  -0.614654  1.16816 
H  0.175936 -0.38174   1.78773 
H  1.28635   1.26002  -0.412132
H -0.465489  1.53459   0.128729
H -1.26953  1.62831 -2.04873
H -0.100064  0.669486 -2.74352 
H -0.183548  4.48352  -2.34022 
H -0.430033  3.39083  -3.78471 
H  1.97998  3.82042 -4.46078
H  2.41166  4.16639 -2.77955
H  2.06163  7.10457 -5.13726
H  3.1608   6.63924 -3.86464
H  2.86264  5.51464 -5.17726
