37

C -2.71582  2.27925  5.59994
O -3.09933  2.58702  4.29205
C -2.12143  3.0453   3.42466
C -2.38152  2.46196  2.05422
O -1.52871  3.0294   1.08493
C -0.945282  2.06628   0.230862
C 0.322629 1.43086  1.00142 
O 0.244512 0.060906 0.966633
C  1.33244  -0.568445  0.347839
C  1.12097  -0.588157 -1.24879 
O  1.63072 -1.83662 -1.63587
C  1.8595  -2.11572 -2.97806
C  1.59246 -3.69453 -3.28473
O  2.07023 -3.96063 -4.56467
C  1.53115 -5.07257 -5.17895
H -3.56808  2.30089  6.25133
H -2.04571  3.05216  6.02478
H -2.35795  1.253    5.69699
H -1.11948  2.66883  3.79093
H -2.09314  4.12327  3.31123
H -2.21195  1.33745  2.13839
H -3.47282  2.66673  1.87599
H -1.56627    1.16807   -0.0837814
H -0.764945  2.55861  -0.744435
H 1.21342  1.94204  0.539532
H 0.303496 1.69099  2.05172 
H  1.38708  -1.62437   0.668678
H  2.3174   -0.195373  0.627513
H  1.5341    0.198736 -1.85816 
H  0.0295823 -0.42551   -1.42197  
H  2.89664 -1.87995 -3.33028
H  1.18949 -1.5197  -3.56205
H  0.511552 -3.89299  -3.21773 
H  2.09188 -4.21022 -2.49782
H  1.13582 -5.79361 -4.45277
H  0.834481 -4.81125  -5.95767 
H  2.3877  -5.60725 -5.64942
