37

C  1.10153  6.81751 -4.3407 
O  0.722752  6.1964   -3.15299 
C  0.274356  4.89371  -3.30592 
C  0.519211  4.29325  -1.87681 
O  0.422737  2.84379  -2.01327 
C  0.462639  2.18497  -0.768219
C -0.195011  0.775502 -0.914224
O -0.456697  0.129453  0.376882
C -1.00133  -1.19234   0.333179
C -0.560492 -1.8178    1.67699 
O -0.890725 -3.19947   1.63419 
C -0.222735 -3.95525   2.61418 
C -0.618801 -5.38434   2.45985 
O -0.252676 -6.20491   3.60974 
C -0.412941 -7.60877   3.45501 
H  1.51481  7.85164 -4.0842 
H  0.245403  7.02289  -5.03981 
H  1.88855  6.29038 -4.93895
H  0.722697  4.21821  -4.06829 
H -0.750238  4.86404  -3.57842 
H  1.48557  4.47763 -1.41416
H -0.164194  4.69865  -1.21199 
H  1.4885    2.05329  -0.255431
H -0.123477   2.76551   -0.0209634
H -1.0968    0.828294 -1.50578 
H  0.382244  0.12288  -1.59601 
H -0.636138 -1.66871  -0.585843
H -2.05263  -1.10926   0.373063
H -1.04831 -1.38014  2.57563
H  0.571428 -1.71558   1.73293 
H -0.556449 -3.64914   3.57087 
H  0.886589 -3.72942   2.64893 
H -0.273631 -5.86784   1.53945 
H -1.73209 -5.31162  2.30072
H -1.437   -7.80299  3.08447
H  0.214107 -7.92266   2.61043 
H -0.327094 -8.09089   4.4274  
