37

C  6.71521   2.51107  -0.440077
O  5.50417   1.79036  -0.414084
C  5.26178   0.891171 -1.43325 
C  4.12497   -0.0319704 -0.82188  
O  2.8155    0.404711 -1.30288 
C  1.75986   0.154405 -0.377924
C  0.431597  0.582993 -1.10951 
O -0.554889 -0.124059 -0.440377
C -1.89633   0.189435 -0.90991 
C -2.87162  -0.711211 -0.074725
O -4.13696   -0.0342515 -0.216435 
C -5.19     -0.6339    0.552445
C -5.00543  -0.930242  2.0196  
O -4.02045 -1.92044  2.38358
C -4.17324 -3.31674  2.13725
H 6.69299  3.12212  0.554772
H  6.7757   3.12256 -1.35979
H  7.58155   1.83005  -0.318679
H  6.07488   0.223141 -1.59541 
H  5.02856  1.43027 -2.4316 
H  4.18405  -1.13027  -0.994558
H 4.22752   0.0868144 0.232697 
H  1.67547  -0.99487  -0.255209
H 1.87204  0.585726 0.601738
H  0.222576  1.65216  -1.16099 
H  0.476791  0.241533 -2.10122 
H -1.86224   -0.0527699 -1.98519  
H -2.19145   1.21607  -0.728731
H -2.4849   -0.66725   0.932447
H -2.92661  -1.82242  -0.375626
H -5.38483  -1.63796   0.175063
H -6.07666    0.0685786  0.529373 
H -6.02682 -1.30655  2.40689
H -4.78463e+00  3.28260e-04  2.65138e+00
H -5.06894 -3.65909  2.74741
H -4.23342 -3.56499  1.06026
H -3.29417 -3.77843  2.55122
