37

C -5.92377   0.912351 -0.526484
O -6.41377  -0.247751  0.182248
C -5.85481  -0.383048  1.48215 
C -4.34349  -0.757065  1.69238 
O -3.62528   0.396157  1.26816 
C -2.18381   0.204891  1.31958 
C -1.60684    0.0450741 -0.114925 
O -0.386835  -0.626193  -0.0209798
C  0.669309 -0.271762 -0.889447
C  1.9734   -0.710845 -0.265276
O  2.93519  -0.676311 -1.3189  
C  4.31305 -1.029   -1.05332
C  5.15256   0.186801 -0.593411
O  6.50556  -0.124969 -0.892085
C  7.40327   0.993216 -0.865638
H -4.84706   0.924778 -0.523322
H -6.28133   1.90138  -0.129476
H -6.21507   0.948604 -1.57647 
H -6.49554 -1.08076  2.02333
H -5.87711   0.526934  2.12308 
H -4.07172  -0.897939  2.77443 
H -4.0701  -1.72415  1.09379
H -1.81204  1.1016   1.80661
H -1.88622  -0.629042  1.97862 
H -2.41461  -0.423971 -0.756523
H -1.4812    1.05458  -0.604071
H  0.656488  0.893099 -1.07558 
H  0.48193  -0.700537 -1.8596  
H  1.75784   -1.82479    0.0878233
H  2.26247   -0.0808648  0.688233 
H  4.6468  -1.36486 -2.03445
H  4.32311  -1.81286  -0.302389
H 5.06467  0.293539 0.529243
H  4.85357  1.14035 -1.06589
H  6.97382  1.79199 -1.54206
H 7.41586  1.43649  0.149182
H  8.40171   0.614892 -1.18856 
