37

C  2.49682 -3.88871 -3.51983
O  1.49084 -4.19391 -2.53563
C  1.50596 -5.32488 -1.71067
C  0.480297 -5.16542  -0.616897
O  0.630146 -3.99097   0.197491
C  0.610903 -2.74133  -0.366672
C -0.0432891 -1.73534    0.674043 
O  0.112096   -0.539075   -0.00950557
C -0.075104  0.606448  0.816905
C -0.736581   1.7696     0.0260563
O -0.735932  2.93763   0.886916
C -0.880726  4.1714    0.184189
C -1.04922  5.36827  1.08914
O -2.22219  5.15856  1.86396
C -2.61866  6.11456  2.80103
H  3.49328 -3.89975 -3.06179
H  2.25177 -2.72097 -3.55397
H  2.30799 -4.25558 -4.5595 
H  2.51067 -5.32626 -1.29388
H  1.35579 -6.2313  -2.32545
H -0.554458 -5.21792  -1.08216 
H  0.425322  -6.07968    0.0509472
H  1.64614  -2.34912  -0.412133
H  0.0614774 -2.75302   -1.3756   
H -1.16605  -1.87163   0.843398
H  0.527374 -1.7351    1.61348 
H 0.886901 0.750078 1.25013 
H -0.990452  0.425004  1.53183 
H -1.73513   1.41574  -0.314608
H -0.192092  1.91082  -0.916202
H -1.85235   3.94221  -0.315019
H -0.0315004  4.25225   -0.608976 
H -1.17554   6.25963   0.447564
H -0.192605  5.54134   1.72915 
H -2.94202  7.11086  2.3258 
H -3.45332  5.68022  3.42781
H -1.78576  6.33152  3.45385
