37

C -4.1978   -5.9463   -0.171682
O -2.92792  -6.27408   0.317276
C -2.36413 -5.16974  1.06759
C -2.0827   -3.86687   0.161975
O -1.22403  -3.05553   0.847245
C -0.400832 -2.22702   0.119084
C -0.497499 -0.808422  0.685423
O  0.704414 -0.19381   0.297974
C 0.905601 1.12044  0.614225
C  0.34032   1.99214  -0.470123
O  1.24885   2.99624  -0.748362
C 1.64658  3.85017  0.342089
C  2.92597    4.63908   -0.0718758
O  2.71917   5.97412  -0.671636
C  2.19159  5.88244 -1.98139
H -4.77362  -5.44434   0.626406
H -4.64581  -6.90633  -0.379269
H -4.22956  -5.25044  -0.980497
H -1.3738  -5.4849   1.33793
H -3.07613 -4.9244   1.86188
H -1.72577  -4.24796  -0.831627
H -3.02861  -3.41394  -0.124974
H  0.638704  -2.54217    0.0816547
H -0.698709 -2.07504  -0.945954
H -1.41653  -0.355654  0.285958
H -0.672022 -0.797589  1.73858 
H 1.9635   1.27469  0.755976
H 0.581784 1.40483  1.58577 
H -0.751171  2.28317  -0.235889
H  0.252434  1.41555  -1.53999 
H 1.8576  3.27673 1.29222
H 0.883959 4.61114  0.532214
H  3.54338   4.0614   -0.821047
H 3.53948  4.79149  0.789993
H  2.48338  6.68962 -2.60039
H  2.54675  4.99591 -2.55779
H  1.07895  5.87194 -1.96893
