37

C -5.60545  2.67451  1.31813
O -6.14859   1.98079   0.177836
C -5.32061   1.02307  -0.432231
C -4.05709  1.65816 -1.11882
O -3.41077   0.536469 -1.62645 
C -2.08802   0.693564 -2.05038 
C -1.39668 -0.58991 -1.63447
O -0.335635 -0.312318 -0.733323
C  0.909073 -0.901245 -0.920363
C  1.65242  -0.858495  0.394328
O  2.99931  -1.09388   0.149024
C  3.69969 -1.41714  1.30902
C  5.18528  -1.84248   0.816876
O  6.12898 -1.99849  1.85067
C  6.53936  -0.765037  2.38692 
H -5.19791   3.57043   0.845641
H -4.80817  2.06845  1.77955
H -6.34221  2.80965  2.07453
H -5.89468  0.60537 -1.21763
H -5.02858   0.240792  0.304479
H -4.42293  2.4384  -1.84464
H -3.52106   2.26245  -0.371038
H -1.95096  0.83032 -3.12376
H -1.61205  1.63963 -1.65927
H -2.20813 -1.26152 -1.13509
H -1.09583 -1.17576 -2.54506
H  1.57128  -0.358265 -1.63989 
H  0.7131  -1.94837 -1.26181
H  1.12778 -1.61537  1.00869
H 1.5211    0.0790251 0.910603 
H  3.36759 -2.28996  1.89331
H  3.90475 -0.53802  1.91428
H  5.4595    -1.11863    0.0501595
H  5.17009  -2.90883   0.419258
H  5.93088  -0.493959  3.25346 
H  7.60384  -0.807428  2.82658 
H 6.59902   0.0211691 1.68346  
