37

C -1.43275 -4.0762   4.94106
O -0.276944 -3.43884   5.43108 
C  0.118945 -2.32237   4.62231 
C  1.01756 -2.65012  3.38898
O  0.589233 -2.10687   2.08388 
C  0.825702 -0.728069  2.0006  
C -0.38363  -0.230367  1.09825 
O -0.0615394  0.804497   0.192121 
C -0.819443  0.905274 -1.04516 
C -0.429441  2.21719  -1.60337 
O -1.46577  2.55423 -2.51221
C -0.990411  2.95872  -3.79596 
C -0.488663  1.75425  -4.61807 
O  0.898055  1.42321  -4.48165 
C  1.71642  2.00727 -5.52986
H -1.41246 -4.29591  3.85764
H -2.28706 -3.44665  5.08891
H -1.48276 -4.96855  5.55497
H  0.823579 -1.85273   5.34716 
H -0.735111 -1.73169   4.24806 
H  1.99702 -2.28478  3.70455
H  0.998416 -3.73605   3.21245 
H  0.88182  -0.207326  2.89805 
H  1.78621  -0.532866  1.6457  
H -0.712492 -1.18578   0.618279
H -1.26819   0.195642  1.65336 
H -1.85124   0.790328 -0.771667
H -0.565303   0.0929479 -1.6595   
H  0.570896  1.99445  -1.9034  
H -0.39941  3.14615 -0.93653
H -0.119405  3.61431  -3.78534 
H -1.77964  3.47519 -4.38356
H -0.906793  1.71218  -5.6532  
H -0.979589  0.895516 -4.18788 
H  1.9611   1.26058 -6.35867
H  1.17452  2.86641 -5.93525
H  2.62614  2.37216 -5.02992
