37

C -1.84283  6.36463  3.54606
O -2.47224  5.10657  3.55579
C -1.73354  4.02878  3.11106
C -2.68421  2.8412   2.94545
O -1.86923  1.73735  2.59074
C -1.83883  1.4171   1.22901
C -1.351    -0.063394  1.19578 
O -1.12386    -0.655467    0.00867499
C  0.203816 -1.01966  -0.340335
C -0.00225184 -2.01018    -1.52474   
O  1.24284 -2.64527 -1.67131
C  1.48905 -3.71109 -2.6221 
C  3.01295 -3.72034 -2.94527
O  3.17179 -4.43445 -4.13066
C  4.40035 -4.46199 -4.75965
H -0.74981  6.26089  3.68618
H -2.12322  6.90937  4.42694
H -2.08762  6.91237  2.68152
H -0.898633  3.76282   3.82929 
H -1.26233  4.23709  2.10555
H -3.09263  2.58926  3.9185 
H -3.445    3.08981  2.271  
H -2.87604   1.48019   0.745458
H -1.17456   2.06849   0.617778
H -0.478727   0.0387864  1.82989  
H -2.00579  -0.693564  1.77478 
H  0.719559 -1.55865   0.464144
H  0.844376 -0.143096 -0.647007
H -0.341363 -1.46129  -2.39909 
H -0.753273 -2.75188  -1.37796 
H  0.880317 -3.44298  -3.507   
H  1.32063 -4.67497 -2.12615
H  3.59974 -4.16317 -2.08569
H  3.34569 -2.66285 -3.02757
H  4.60675 -3.64611 -5.41002
H  5.21655 -4.52604 -4.05448
H  4.53459 -5.3955  -5.26426
