37

C -4.70823   5.62803   0.911472
O -3.3505    5.46882   0.619265
C -2.69972  4.4016   1.39113
C -2.95198   2.96874   0.866926
O -1.72394   2.33656   0.557239
C -1.98699   0.990204  0.053421
C -0.636145  0.229445  0.131876
O -0.819299 -1.12973  -0.254357
C  0.335281 -1.92298  -0.255471
C  1.11363 -2.10796  1.0719 
O  2.491    -2.18519   0.705156
C  2.98517  -3.39815   0.162711
C  3.40124 -3.15132 -1.26101
O  4.13273 -4.21882 -1.77975
C  3.36458 -5.0623  -2.63847
H -4.91457  6.14157  1.85293
H -5.22671  4.68758  0.92779
H -5.21293   6.19816   0.147015
H -3.04203  4.54103  2.43805
H -1.70774  4.67017  1.35596
H -3.6776   2.39054  1.45234
H -3.61417    3.14745   -0.0725266
H -2.76794   0.525443  0.667291
H -2.45342   0.956457 -0.937891
H  0.141564  0.724294 -0.494375
H -0.228785  0.392493  1.13253 
H  1.10799  -1.4872   -0.975644
H  0.146948 -2.91403  -0.664583
H  0.642834 -2.95768   1.53385 
H  1.14372 -1.33241  1.80679
H  2.19164  -4.20926   0.196142
H  3.87657  -3.77721   0.767743
H  4.13315 -2.2795  -1.33439
H  2.50947 -2.88866 -1.85152
H  3.51698 -4.54828 -3.59858
H  3.77103 -6.13502 -2.72529
H  2.29874 -5.08956 -2.28567
