37

C -2.75043  2.33141  2.66743
O -3.44097  1.19874  2.14888
C -2.62138   0.368874  1.39523 
C -3.55311  -0.49134   0.426123
O -2.93567  -1.52917  -0.288059
C -2.73341  -2.80447   0.336087
C -1.53647  -3.51777  -0.274112
O -0.366212 -2.84635   0.127026
C  0.163395 -1.96786  -0.953237
C  1.22883  -1.01617  -0.416905
O  1.65464    0.0266318 -1.32043  
C  2.48822   1.0029   -0.729719
C  3.39867  1.82714 -1.60589
O  4.38221  2.41837 -0.75312
C  5.33886  3.31905 -1.19799
H -3.38793  2.8709   3.34734
H -2.33889  3.04819  1.96431
H -1.89651  2.02279  3.35385
H -2.07981  -0.269095  2.11462 
H -1.94505   0.976614  0.773519
H -4.39906  -0.931504  1.08855 
H -3.90405   0.192502 -0.344512
H -2.54561 -2.63392  1.34147
H -3.59374  -3.39684   0.227179
H -1.66435  -4.51625   0.175988
H -1.54606 -3.67172 -1.31816
H -0.614767 -1.38002  -1.32883 
H  0.627856 -2.57414  -1.81348 
H  2.16312  -1.5413   -0.193801
H  0.703475 -0.574222  0.476991
H  3.15474    0.493057  -0.0193903
H  1.82284   1.77724  -0.209632
H  2.8915   2.60252 -2.15601
H  3.94057  1.0907  -2.21229
H  5.54279   3.98661  -0.340319
H  6.2783   2.78576 -1.45226
H  5.068    3.93588 -2.07418
