37

C  5.68164   0.241394 -0.536051
O  4.65454  -0.549586 -1.02671 
C  3.54403   0.103624 -1.67208 
C  3.01886   1.28171  -0.863278
O  1.80253  1.7928  -1.44934
C  1.38483   2.93773  -0.738633
C -0.13757   2.93299  -0.810087
O -0.436374   1.91041    0.0768549
C -1.85897    1.56701    0.0685567
C -1.97793   0.248004  0.833431
O -3.24965  -0.292561  0.507402
C -3.58974 -1.40122  1.30273
C -2.94069 -2.80251  0.94489
O -3.86811 -3.82078  1.38057
C -3.27683 -5.07626  1.61552
H  6.37468  -0.472683 -0.181132
H 5.41305  0.781848 0.382687
H  6.10406   0.821926 -1.35043 
H  2.75489  -0.662573 -1.78699 
H  3.80831   0.615936 -2.65219 
H 2.84723  0.925645 0.189926
H  3.79354   2.15892  -0.850763
H 1.61607  2.71902  0.343338
H  1.90969  3.79184 -1.10029
H -0.682392  3.85392  -0.442798
H -0.546383  2.83612  -1.82965 
H -2.10949   1.4184   -0.999206
H -2.50239   2.35151   0.404968
H -1.7245    0.420735  1.91029 
H -1.22166  -0.429947  0.413864
H -4.65092 -1.54286  1.12392
H -3.32406 -1.22193  2.38168
H -1.88749 -2.91691  1.41567
H -2.81314  -2.86481  -0.202168
H -2.77466  -5.55318   0.777148
H -2.74587 -5.16718  2.51374
H -4.21195 -5.63769  1.75964
