37

C -2.46509 -1.43419  3.73285
O -2.91268  -0.624757  2.64099 
C -3.90718 -1.15897  1.74333
C -4.05052   -0.0474042  0.681571 
O -2.79974    0.0163294 -0.0189771
C -2.61428   0.906944 -1.06722 
C -1.1447    0.569833 -1.48158 
O -0.794157  1.38381  -2.55795 
C  0.546598  1.36334  -2.99476 
C  1.5605   1.61383 -1.87521
O  1.83088   0.349978 -1.23704 
C  2.86092   0.347028 -0.255729
C  3.26529   -1.05248    0.0149318
O  4.47563  -0.99215   0.731732
C  4.86998 -2.24734  1.30205
H -2.81465 -1.19584  4.70503
H -1.36199 -1.32525  3.84741
H -2.58108 -2.57842  3.53356
H -4.86334 -1.41536  2.26706
H -3.59175 -2.12201  1.16841
H -4.83014   -0.367915   0.0230383
H -4.29272   0.858793  1.28054 
H -3.31177   0.748449 -1.85757 
H -2.62757   2.01451  -0.805778
H -0.54208   0.856346 -0.619679
H -1.08269 -0.51503 -1.67167
H  0.603986  2.11786  -3.77338 
H  0.74454   0.363165 -3.48757 
H  1.13236  2.29994 -1.21554
H  2.5152   2.12866 -2.2584 
H 2.48847  0.81365  0.665441
H  3.81425   0.767773 -0.58275 
H  3.50659  -1.43078  -0.969792
H  2.38035  -1.49535   0.415088
H  5.58045 -1.96779  2.03149
H  4.08908 -2.71704  1.91291
H  5.26909  -2.99568   0.610653
