37

C -3.38476 -3.69181  2.12909
O -3.73549  -3.03652   0.865759
C -2.74879   -2.61793   -0.0176565
C -2.62834  -1.05749   0.100546
O -1.57892  -0.684582  1.0536  
C -0.9373    0.585044  0.938026
C 0.281735 0.670068 1.83132 
O 1.46312  0.352859 1.07905 
C  1.52613  -1.00638   0.563553
C  2.67615  -0.865311 -0.430521
O  2.30924   0.120034 -1.37067 
C  2.97119  1.38115 -1.56371
C  1.98814  2.29331 -2.27678
O  1.05615  2.73909 -1.32947
C -0.0919928  3.51473   -1.84017  
H -4.36725 -3.78884  2.6421 
H -2.6394  -3.18669  2.62606
H -3.0965  -4.73101  1.85808
H -3.06385 -2.87662 -1.01617
H -1.8153   -3.16785   0.148711
H -2.41272  -0.607301 -0.8808  
H -3.54555  -0.551147  0.410226
H -0.716343   0.825729  -0.0808927
H -1.72913  1.28415  1.25511
H 0.454375 1.71602  2.23879 
H  0.141717   -0.00793764  2.73268   
H  0.747549 -1.32615  -0.152399
H  1.60345 -1.785    1.41936
H  2.96292  -1.87353  -0.986001
H  3.5727    -0.485317   0.0847123
H  3.95056  1.28859 -2.13232
H  3.16659   1.88914  -0.652553
H  1.49045  1.79142 -3.19021
H  2.6299   3.22343 -2.71918
H -0.338419  4.29268  -1.0515  
H  0.0983946  4.03678   -2.78438  
H -1.03886  2.96885 -1.92094
