37

C -2.39528  2.04752 -7.64068
O -2.545     0.954678 -6.71    
C -1.99114  1.29805 -5.45145
C -2.05978   0.148521 -4.37624 
O -1.31354   0.548404 -3.21955 
C -1.69192e+00  8.06903e-04 -1.91870e+00
C -0.57298   0.434038 -0.91861 
O -0.577657 -0.387093  0.290427
C  0.715731 -0.466792  0.866728
C  0.748468 -1.00634   2.31567 
O  2.04494  -0.861423  2.83904 
C  2.20988 -1.40379  4.0828 
C  1.82365 -0.57423  5.33586
O  2.18151 -1.39932  6.48672
C  2.30984  -0.730459  7.7303  
H -2.73552  1.68262 -8.64094
H -1.30212  2.25188 -7.71171
H -2.96194  2.91973 -7.36423
H -2.54856  2.19811 -5.05967
H -0.960761  1.62014  -5.57858 
H -3.14871    0.0482882 -4.22392  
H -1.80918  -0.838608 -4.81787 
H -2.71893   0.281192 -1.7124  
H -1.59575 -1.08909 -1.99578
H  0.42888  0.21016 -1.4221 
H -0.651447  1.50162  -0.706427
H 1.18455  0.587663 0.922488
H  1.47883 -1.01496  0.21104
H  0.378259 -1.99439   2.29382 
H  0.113599 -0.28087   2.94466 
H  3.28222 -1.59368  4.299  
H  1.76841 -2.50134  4.08887
H  0.748565 -0.300363  5.38396 
H 2.29402 0.38069 5.38976
H  3.21095 -1.10768  8.3292 
H 2.40868  0.415743 7.47776 
H  1.42965 -0.81637  8.3958 
