37

C -4.00845   1.99994   0.874195
O -3.48717  3.18495  1.52009
C -2.07274  3.35055  1.28841
C -1.18271  2.74     2.33816
O -0.664049  1.61373   1.67877 
C 0.245277 0.939687 2.43509 
C  1.06182    -0.00782537  1.67179   
O  0.468941 -1.20712   1.38511 
C -0.497642 -1.06274   0.299298
C -0.662128 -2.36727  -0.451016
O -0.166771 -2.36555  -1.73693 
C  1.05167 -2.93166 -1.94464
C  1.75421 -1.97037 -2.90562
O  3.08815 -1.85688 -2.57699
C  3.88125 -1.24886 -3.53379
H -3.16629   1.40096   0.573141
H -4.66083    2.23743    0.0425308
H -4.68533  1.59064  1.6336 
H -1.88241  4.42922  1.35025
H -1.87971   3.06174   0.239369
H -0.413993  3.42176   2.81406 
H -1.7891   2.4716   3.19771
H 0.990482 1.51441  2.88649 
H -0.266225  0.432413  3.26186 
H 1.34255  0.686713 0.788746
H  2.05986  -0.372789  1.98891 
H -0.221459 -0.373199 -0.527224
H -1.32422  -0.683099  0.802757
H -1.76383  -2.61542  -0.511138
H -0.135725 -3.10371   0.161716
H  1.02965 -3.88765 -2.49759
H  1.8219  -3.09461 -1.13057
H  1.30529 -1.02144 -2.7664 
H  1.54236 -2.30717 -3.93464
H  3.63816  -0.164861 -3.44729 
H  4.98025 -1.32342 -3.36011
H  3.64656 -1.53908 -4.6134 
