37

C -4.57512 -4.38986  1.33173
O -3.86766  -3.27501   0.849439
C -2.49582  -3.54895   0.645727
C -1.78353 -3.96242  1.93645
O -0.420733 -3.77784   1.80005 
C  0.0377417 -2.41909    1.73697  
C  0.725327 -2.09014   0.426646
O  0.0829726 -0.933907  -0.0194617
C 0.679975 0.318592 0.302926
C  0.0857258  1.36091   -0.735288 
O  1.00358   2.46332  -0.605706
C  1.39978  3.18919 -1.76928
C  2.45196  4.19382 -1.36459
O  2.26637  5.35695 -2.13613
C  3.30268  6.26686 -2.23261
H -3.92504 -5.05008  1.92939
H -4.9454   -4.93366   0.466225
H -5.44128 -4.02177  1.92207
H -1.97917  -2.60104   0.311434
H -2.46642  -4.22212  -0.203828
H -2.14761 -3.33227  2.74028
H -1.90305 -5.0419   2.15316
H -0.755686 -1.72865   1.93134 
H  0.705576 -2.40111   2.62884 
H  1.81501  -1.98682   0.632894
H  0.836884 -2.82688  -0.412458
H 1.76967  0.342978 0.378766
H 0.419934 0.598806 1.31509 
H -0.829514  1.77672  -0.21926 
H -0.189695  1.13893  -1.739   
H  0.51395  3.67583 -2.25412
H  1.95974  2.56465 -2.54013
H  3.47915  3.77383 -1.37777
H  2.36602   4.34961  -0.198407
H  3.29757  6.43707 -3.34078
H  3.04176  7.17946 -1.71751
H  4.24003  5.9244  -1.85679
