37

C -2.68172 -6.96406  1.5134 
O -3.01808 -5.61283  1.75231
C -2.4223   -4.65375   0.954205
C -2.83421 -3.28866  1.53184
O -2.19781  -2.28393   0.853129
C -2.45464  -0.954985  1.20655 
C -2.05565   -0.0265504  0.0914482
O -1.13539   0.943464  0.555107
C -0.137576  1.2528   -0.466008
C 0.877036 2.28713  0.125059
O  2.01398   2.14408  -0.596207
C  2.31734  3.23998 -1.3918 
C  3.88409  3.26817 -1.43257
O  4.40724  4.15028 -2.40323
C  4.18774  5.50094 -2.10583
H -2.96824  -7.26928   0.582993
H -3.27619 -7.61176  2.19289
H -1.66408 -6.96765  1.71618
H -2.76511  -4.76838  -0.134275
H -1.33847  -4.74647   0.925903
H -3.87239 -3.19362  1.44956
H -2.64386 -3.35745  2.66091
H -3.52207  -0.765382  1.37788 
H -2.04765  -0.716292  2.21412 
H -1.76275  -0.613816 -0.867776
H -2.96275   0.457385 -0.316269
H -0.467702  1.7828   -1.3819  
H  0.235081  0.221421 -0.73974 
H 1.16215 2.07966 1.20468
H 0.574148  3.29698   0.0942981
H  1.97209   4.16705  -0.951905
H  1.91182  3.1515  -2.42455
H  4.24062  2.3224  -1.76469
H  4.28458   3.44863  -0.382407
H  5.06547  5.90392 -1.5349 
H  4.24533  6.13384 -3.02609
H  3.19113  5.63403 -1.66982
