37

C  3.42465  2.37431 -6.85562
O  3.6138   1.97449 -5.50551
C  2.98776   0.724894 -5.07717 
C  2.91604  0.65615 -3.48981
O  1.87333  -0.194121 -3.08063 
C  1.57769   0.274513 -1.79798 
C  0.363813 -0.506105 -1.14465 
O -0.0142523  0.0629885  0.10177  
C -1.22462  -0.498622  0.511103
C -1.60388  -0.101372  1.94146 
O -2.48354 -1.06948  2.54436
C -2.54987  -0.774584  3.91303 
C -3.61105 -1.58342  4.69823
O -3.74202 -1.13266  6.04992
C -2.67838 -1.5712   6.89976
H  3.82023  1.69285 -7.57061
H  4.01389  3.26818 -6.8841 
H  2.36477  2.51206 -7.12943
H  3.6784    -0.0802196 -5.41503  
H  1.96205   0.613926 -5.43151 
H  3.95748   0.377171 -3.12757 
H  2.79206  1.71555 -3.16764
H  2.3739    0.364374 -1.09136 
H  1.08165  1.32489 -1.99486
H -0.501255 -0.376911 -1.91253 
H  0.739235 -1.5493   -1.08574 
H -1.15469  -1.60762   0.544069
H -2.03289  -0.133241 -0.19296 
H -1.98167   0.901565  2.02264 
H -0.706964  -0.0717794  2.54356  
H -2.95295   0.320731  3.9875  
H -1.54501  -0.843222  4.34671 
H -3.35723 -2.67679  4.66929
H -4.58023 -1.52316  4.25996
H -2.77611 -2.66766  7.18324
H -1.66673 -1.36374  6.45983
H -2.6421  -1.14239  7.86254
