37

C -5.10267  2.45376  1.38573
O -4.70849   1.26635   0.596864
C -5.56926  0.2238   1.03236
C -5.10914  -1.11007   0.381143
O -3.8663   -1.57178   0.931048
C -2.72173  -1.08673   0.159108
C -1.42786  -1.91442   0.594728
O -0.414576 -1.33345  -0.169532
C  0.963929  -1.73679   -0.0514935
C  1.88193  -0.827777 -0.900994
O  3.18147  -0.600098 -0.375136
C  3.82655   0.582594 -0.911416
C  5.29081   0.463784 -0.384823
O  6.17853   1.61115  -0.601829
C  6.44082  2.00988 -1.93665
H -6.21752  2.56891  1.40953
H -4.51775  3.33176  1.01025
H -4.80833  2.3873   2.44346
H -6.61341   0.431408  0.633937
H -5.50566   0.115165  2.11625 
H -5.8727   -1.91641   0.635637
H -5.18843  -0.950933 -0.718978
H -2.76941  -1.18661  -0.912624
H -2.45906   -0.0453586  0.40849  
H -1.28034 -1.83374  1.63259
H -1.5934   -2.95892   0.370712
H  1.15909  -2.77283  -0.372892
H  1.32429 -1.70893  1.01518
H  1.27435   0.111855 -0.923942
H  1.97009 -1.18238 -1.96556
H  3.27995   1.4587   -0.462399
H  3.73862   0.551763 -1.94926 
H  5.70001  -0.429742 -0.846533
H 5.33003  0.318157 0.742735
H  6.69804  1.16405 -2.61881
H  5.5211   2.47906 -2.44048
H  7.33674  2.63687 -1.89198
