37

C  0.120257 -4.15638  -6.0908  
O  0.520561 -3.15651  -5.16965 
C -0.0574718 -3.08552   -3.88937  
C  0.152229 -1.59971  -3.4714  
O -0.640731 -1.15503  -2.38042 
C -0.0511003 -1.67173   -1.20298  
C -0.745998  -1.04662   -0.0294194
O  0.134186 -1.39317   1.01905 
C -0.422095 -1.19881   2.3353  
C 0.238665  0.0546112 3.03621  
O -0.117519  1.1451    2.24387 
C 0.556135 2.37434  2.64219 
C -0.477379  3.30643   3.23299 
O 0.141366 4.62558  3.31474 
C -0.402838  5.58623   4.24237 
H -0.980074 -4.34597  -6.16036 
H  0.522806 -5.18001  -5.84434 
H  0.495621 -3.80208  -7.0571  
H  0.405027 -3.8414   -3.21101 
H -1.17419 -3.29092 -3.93705
H  1.26337 -1.35028 -3.36853
H -0.108692 -0.960659 -4.32116 
H -0.0803383 -2.78762   -1.10038  
H  1.03284 -1.37492 -1.11789
H -0.776627   0.0290902 -0.0878106
H -1.71389   -1.41367    0.0881197
H -0.347662 -2.14403   2.84481 
H -1.48392  -0.957572  2.30213 
H  1.34344   -0.0685173  3.07177  
H -0.136534  0.113479  4.08971 
H 0.915135 2.97696  1.82409 
H 1.29224 2.22351 3.42346
H -0.900999  2.85414   4.2018  
H -1.31914  3.33129  2.50404
H -0.118858  5.25423   5.25728 
H -0.0853946  6.61718    3.99468  
H -1.46344  5.57556  4.27909
