37

C -1.01989 -4.14274  2.57587
O -0.721721 -2.91765   3.22825 
C -0.844901 -1.73332   2.46791 
C -0.230455 -0.585171  3.33189 
O -0.86013   0.551648  2.71774 
C -0.347296  1.81137   2.99082 
C -0.0165356  2.46764    1.61373  
O 1.31895 2.22271 1.03495
C 1.494    0.949339 0.386316
C  1.35003  1.07662 -1.11826
O  0.356728  0.221622 -1.59979 
C  0.411262 -0.256908 -2.93207 
C -0.915822 -0.267    -3.57813 
O -0.850987 -0.6035   -4.98228 
C -0.195412  0.354579 -5.73518 
H -0.922308 -5.01902   3.3363  
H -0.313452 -4.2205    1.70688 
H -2.07104 -4.14336  2.08919
H -1.9394  -1.49882  2.26204
H -0.424213 -1.94785   1.44822 
H -0.44938  -0.698538  4.43214 
H  0.853949 -0.600903  3.34133 
H -1.16641  2.3111   3.46072
H 0.539868 1.92857  3.67721 
H -0.774564  2.07867   0.933112
H -0.0940374  3.58101    1.61359  
H 0.86787   0.0712865 0.609889 
H 2.45757  0.694575 0.812411
H  2.27693  1.04224 -1.66334
H  0.927522  2.05193  -1.43981 
H  0.701842 -1.33292  -3.04443 
H  1.08936   0.392141 -3.46052 
H -1.36618   0.724799 -3.53126 
H -1.56227  -0.951752 -3.00359 
H -0.667867  0.423363 -6.67409 
H -0.0825911  1.32017   -5.22184  
H  0.863815  0.10059  -5.95397 
