37

C -3.53091  4.6381  -3.55877
O -2.16927  4.16691 -3.26803
C -2.38777  2.84522 -2.62162
C -1.07793  2.36614 -2.12683
O -1.07868   0.970867 -1.85012 
C  0.261045  0.711157 -1.40857 
C  0.196032 -0.820811 -1.44183 
O  1.40195 -1.42299 -1.03754
C  1.31885  -2.76994  -0.721388
C  2.44726  -3.07422   0.366343
O  2.03894 -2.99901  1.73295
C  1.42807 -1.76572  2.25294
C  0.987235 -2.03412   3.76841 
O -0.0312255 -1.14696    4.11459  
C -0.575257 -1.18842   5.40978 
H -3.93822  3.99191 -4.35111
H -3.4113   5.71032 -3.90102
H -4.16808  4.78964 -2.62441
H -2.78896  2.12607 -3.34461
H -3.14258  3.04076 -1.80938
H -0.401729  2.68009  -2.99232 
H -0.829016  2.90464  -1.27044 
H  1.08522  1.11469 -2.03508
H  0.437767  1.08716  -0.360723
H -0.70066  -1.09167  -0.796785
H -0.0535272 -1.09705   -2.44399  
H  1.48319 -3.33168 -1.69355
H  0.334719 -2.94932  -0.331214
H  3.2641   -2.31109   0.162192
H  2.941    -4.11467   0.217461
H  0.598953 -1.43006   1.68918 
H  2.09322  -0.895996  2.20471 
H  1.8153  -2.05366  4.44499
H  0.521231 -3.09139   3.66885 
H -0.781696 -2.28352   5.58214 
H  0.0272337 -0.819784   6.2707   
H -1.63254  -0.732087  5.41182 
