37

C -4.58035  1.37852 -3.74171
O -3.62778  1.61693 -2.69757
C -3.20659   0.472465 -1.95905 
C -2.6012    1.09688  -0.751266
O -2.11651  0.14088  0.15553
C -2.15479  0.57238  1.49037
C -1.21495  -0.189119  2.37362 
O -0.402724  0.731939  3.0884  
C 0.953506 0.438913 2.93885 
C 1.46899  0.720753 1.57444 
O  2.49885  -0.213404  1.29069 
C  2.67409  -0.449574 -0.133497
C  3.64257   -1.66882   -0.0700584
O  3.56191 -2.15848 -1.41568
C  3.99836 -3.44885 -1.62748
H -5.41978  2.08004 -3.69256
H -5.12499   0.329327 -3.71555 
H -3.96146  1.52328 -4.59041
H -2.53731 -0.18976 -2.58593
H -4.05564  -0.114641 -1.58109 
H -1.78849  1.72716 -1.09977
H -3.38841   1.82977  -0.411089
H -2.02284  1.6879   1.65745
H -3.14803   0.578958  1.88896 
H -1.83793 -0.74063  3.13558
H -0.62361  -0.935917  1.78984 
H  1.18414  -0.634905  3.10091 
H 1.51819 1.02548 3.7573 
H 1.80519 1.72711 1.43492
H 0.627664 0.658235 0.858158
H  3.08633   0.325716 -0.870112
H  1.6873   -0.808953 -0.517878
H  3.32921  -2.41651   0.688424
H  4.65295  -1.31205   0.187222
H  5.06767 -3.38899 -1.95714
H  4.01333  -4.08864  -0.716734
H  3.43761 -3.81446 -2.47558
