37

C -2.36845 -5.98135  1.01051
O -1.4285   -4.99913   0.635177
C -1.51824  -4.5444   -0.646474
C -0.597179 -3.30693  -0.654472
O -0.263526 -3.01118  -1.95544 
C -0.880854 -1.86987  -2.4741  
C  0.0781305 -0.745985  -2.61373  
O -0.312862  0.562326 -2.30226 
C -0.427201  0.820782 -0.913518
C  0.775958  1.68101  -0.487068
O 0.472348 2.22686  0.749966
C 1.50473 3.1382  1.1571 
C 0.984761 3.86102  2.36374 
O 1.70402 5.06255 2.53014
C 1.14378 6.02783 3.42903
H -2.22943 -6.18623  2.10609
H -2.21572  -6.91976   0.520855
H -3.43112  -5.78689   0.833385
H -2.60871  -4.36875  -0.912744
H -0.9712  -5.16713 -1.39539
H -1.01711   -2.54149   -0.0687002
H  0.293284 -3.69349  -0.244971
H -1.37258 -2.18444 -3.43222
H -1.6597  -1.51201 -1.84392
H  1.00296 -1.08036 -2.06412
H  0.628352 -0.613284 -3.56764 
H -0.441119    0.00407803 -0.263597  
H -1.31755   1.40331  -0.755872
H  1.14687  2.38586 -1.28691
H  1.77091  1.08801 -0.48394
H 1.82223  3.91746  0.402666
H 2.41955 2.56162 1.49867
H 1.18731 3.18203 3.17292
H -0.111071  4.02036   2.27281 
H 1.6693  6.19404 4.34116
H 1.17646 7.0182  2.98299
H 0.054894 5.84622  3.6812  
