37

C -7.17267   1.73968   0.249798
O -6.54265   0.786171  1.07263 
C -5.15691   0.866715  1.31617 
C -4.40371  -0.383067  0.857236
O -3.0106   -0.300011  1.0246  
C -2.30644    0.0656838 -0.170126 
C -1.29372  -1.06086  -0.592688
O -0.233037 -0.402909 -1.2445  
C  0.927901 -0.482216 -0.43256 
C  1.93083  0.46404 -1.15648
O  3.15132   0.460052 -0.439552
C  3.94907  -0.654922 -0.626   
C  5.37388  -0.192696 -0.283318
O  6.11847  -1.27557   0.159217
C  7.50054  -0.858364  0.379427
H -6.99421   2.80042   0.622839
H -8.25918   1.63267   0.417315
H -6.88314   1.60178  -0.827569
H -4.96822  1.12018  2.41904
H -4.67667   1.70025   0.798952
H -4.77594 -1.26513  1.36313
H -4.68828  -0.362818 -0.205172
H -2.93215   0.263751 -1.0225  
H -1.7729    1.05684  -0.103516
H -1.11832  -1.71414   0.267946
H -1.83876 -1.64483 -1.3464 
H  1.2788   -1.54731  -0.340524
H  0.839875  -0.0481567  0.54631  
H  1.6989   1.53218 -1.02775
H  2.06266   0.249659 -2.22334 
H  3.9073  -1.01766 -1.66293
H  3.63849   -1.44523    0.0601896
H 5.19736  0.68306  0.426668
H  5.80603   0.287596 -1.1366  
H 7.5823    0.118357  0.0781126
H  7.6438   -0.812299  1.48514 
H  8.18384  -1.56483  -0.115118
