37

C -2.36213 -4.25442  3.80035
O -1.52955 -3.2949   3.45974
C -1.80627 -2.05117  4.03181
C -0.57305 -1.20836  3.97344
O -0.352546 -0.757151  2.69439 
C -1.00077   0.449802  2.34589 
C -1.32595   0.480628  0.810859
O -1.24127   1.89747   0.443023
C  0.0236809  2.19264   -0.081308 
C  0.0315098  2.03148   -1.63971  
O  1.09365  1.22382 -1.90273
C  1.7964   1.75141 -2.96791
C  2.31211   0.528956 -3.75158 
O  1.55439  0.43503 -4.93806
C  2.20206  -0.215487 -6.00225 
H -3.16524 -4.36754  3.12304
H -2.82696 -4.29028  4.79847
H -1.8141  -5.15599  3.79164
H -2.26222 -2.15355  5.0251 
H -2.65537 -1.48318  3.45898
H -0.467138 -0.389571  4.67837 
H  0.189804 -1.87226   4.26534 
H -1.97973   0.554027  2.90801 
H -0.458939  1.33207   2.66039 
H -0.517664 -0.11609   0.372678
H -2.29062    0.0912325  0.423134 
H 0.883616 1.60576  0.323187
H 0.396988 3.21477  0.221439
H  0.180741  3.01351  -2.03738 
H -0.930061  1.58614  -1.99498 
H  2.58472  2.42584 -2.52663
H  1.29075  2.35918 -3.69481
H  2.28459  -0.333002 -3.05993 
H  3.40984   0.714624 -4.00623 
H  1.63362 -1.10491 -6.22058
H  2.19881   0.405764 -6.9115  
H  3.20234  -0.567406 -5.82638 
