37

C  2.43357 -3.30195  3.62591
O  1.81223 -2.04792  3.98707
C  0.43822 -2.01637  3.76583
C  0.0489542 -1.68445    2.29511  
O -1.34253 -1.69596  2.32387
C -2.01431 -1.69708  1.18114
C -2.93317  -0.456116  1.10071 
O -3.22767  -0.178028 -0.265426
C -2.59584   0.833516 -0.989887
C -1.39642  0.30007 -1.72736
O -0.553377  1.40861  -2.13952 
C  0.721507  1.04799  -2.6958  
C  1.22883  2.41077 -3.14364
O  2.65838  2.35766 -3.34206
C  3.15611  3.59264 -3.76775
H  2.17219 -3.71887  2.57152
H  2.22104 -4.039    4.33559
H  3.47703 -2.98012  3.5746 
H  0.107306 -1.27958   4.46975 
H -0.148731 -3.02484   3.88392 
H  0.369581 -0.692474  1.95833 
H  0.412278 -2.54936   1.66932 
H -1.37169  -1.59749   0.317792
H -2.58895 -2.63932  0.9705 
H -3.78175  -0.415263  1.72835 
H -2.28657   0.278627  1.63704 
H -2.18984   1.65376  -0.423333
H -3.39068  1.31541 -1.6202 
H -1.85878  -0.376408 -2.51997 
H -0.706221 -0.426595 -1.39569 
H  0.645741  0.32594  -3.53164 
H  1.38506  0.59007 -2.012  
H  0.925283  3.1766   -2.35406 
H  0.759503  2.65524  -4.08991 
H  2.7004   4.0087  -4.70827
H  3.17561  4.47131 -3.04872
H  4.18339  3.39555 -4.02917
