37

C -0.0884096 -1.34966    6.10719  
O -0.363879 -2.65393   5.66753 
C -1.12801 -2.70105  4.48132
C -0.272551 -2.32777   3.21985 
O -1.19579 -1.55439  2.34942
C -1.14101 -1.93228  0.95561
C  0.180818 -1.54742   0.344252
O  0.281458 -1.87817  -0.970806
C  0.931794 -0.980755 -1.7656  
C  0.137053 -0.216402 -2.82146 
O  0.733895  0.926207 -3.0827  
C -0.103617  1.93321  -3.54356 
C  0.6798   3.10338 -3.70382
O -0.168792  4.25833  -3.8612  
C  0.326458  5.489    -3.42846 
H  0.476283 -0.75681   5.38725 
H  0.436071 -1.50642   7.07131 
H -0.958414 -0.709495  6.3936  
H -1.94524 -1.91167  4.50545
H -1.507   -3.68483  4.32696
H  0.520905 -1.68499   3.45224 
H  0.132658 -3.21459   2.71444 
H -1.30942  -2.98411   0.757743
H -2.04225  -1.34794   0.478379
H  0.180415 -0.486907  0.619764
H  1.01069  -1.98416   0.877013
H  1.78289 -1.43866 -2.24148
H  1.44915  -0.248391 -1.13827 
H -0.891009  -0.0425669 -2.48165  
H  0.0288053 -0.788537  -3.78081  
H -1.01045  2.26885 -2.921  
H -0.563633  1.62603  -4.51035 
H  1.37095  2.96227 -4.55067
H  1.30114  3.2894  -2.84659
H  0.239143  6.29456  -4.13563 
H -0.139866  5.69884  -2.49088 
H  1.42225  5.36979 -3.1708 
