37

C -5.93618   0.831018 -0.619261
O -6.31269  -0.283489  0.155158
C -5.79455  -0.285028  1.4691  
C -4.31736  -0.702856  1.57905 
O -3.54877   0.456192  1.48803 
C -2.16083   0.269089  1.56425 
C -1.53525   0.101458  0.164713
O -0.232427 -0.339173  0.36556 
C  0.587749 -0.308794 -0.772836
C  1.95473  -0.869318 -0.352561
O  2.87383  -0.370977 -1.27143 
C  4.19499  -0.833644 -1.15644 
C  5.11328   0.355643 -0.823986
O  6.42687  -0.116741 -0.845158
C  7.41428   0.876341 -0.713134
H -4.85466   0.872128 -0.811825
H -6.23398   1.78086  -0.153653
H -6.45114   0.736716 -1.57754 
H -6.41376  -0.991018  2.02674 
H -5.90984  0.70263  1.93784
H -4.17961 -1.21515  2.54052
H -4.1164   -1.41345   0.765277
H -1.72936  1.14293  2.06805
H -1.86815  -0.599837  2.17293 
H -2.16119  -0.598134 -0.416317
H -1.56554   1.02983  -0.427999
H  0.76706   0.700186 -1.18619 
H  0.115375 -0.855301 -1.60309 
H  1.90924  -1.97084  -0.318596
H  2.20482  -0.581445  0.684253
H  4.52984 -1.26221 -2.10936
H  4.32089  -1.58811  -0.372159
H 4.85042  0.77406  0.161302
H  4.95713  1.15778 -1.56333
H  7.27666  1.70254 -1.42376
H 7.45258  1.29959  0.300987
H  8.37193   0.396545 -0.925126
