37

C -4.03484 -3.32408  1.56434
O -3.46793 -2.16594  1.96927
C -3.81392 -1.03146  1.12711
C -2.79834    0.0831037  1.34693  
O -3.20784   1.15663   0.554507
C -2.31416   2.28522   0.413596
C -1.54945   2.15215  -0.958963
O -0.260481  1.86177  -0.575293
C  0.69021  1.80409 -1.57106
C  0.966144  0.382723 -1.99781 
O  2.37372   0.209561 -1.9434  
C  2.80609  -0.807822 -1.07577 
C  4.24878  -0.383155 -0.568727
O  4.87854  -1.32528   0.174202
C  4.33009 -1.66451  1.45996
H -3.37734  -3.90316   0.895826
H -4.97763 -3.18682  1.09877
H -4.20321 -3.92146  2.45211
H -4.741    -0.640421  1.5168  
H -3.88324   -1.28148    0.0392529
H -2.83795   0.353837  2.44962 
H -1.73486  -0.245542  1.20667 
H -2.97864   3.18001   0.508822
H -1.63876  2.4362   1.22527
H -2.05972  1.3533  -1.56254
H -1.50017  3.05728 -1.48969
H  1.62654  2.27139 -1.21283
H  0.363885  2.43431  -2.43784 
H  0.638889  0.118917 -3.09626 
H  0.240657 -0.265959 -1.37529 
H  2.91486 -1.7797  -1.59403
H  2.18508  -0.821728 -0.216585
H 4.11082   0.544733  0.0415085
H  4.83528   -0.0973694 -1.42514  
H  3.52283  -0.952797  1.83953 
H  3.85406 -2.61907  1.30543
H  5.1064  -1.76201  2.18349
