37

C -0.910931  4.04816  -1.09409 
O -0.347681   3.40785    0.0470017
C -1.26195   2.62319   0.791527
C -0.536909  1.99433   2.02283 
O -1.32479   0.874065  2.48958 
C -0.570058 -0.246917  2.99611 
C -0.191524 -1.28263   1.90209 
O  1.15083 -1.70584  2.19156
C  1.66135 -2.37395  1.04153
C  2.00885   -1.37791   -0.0661371
O  1.31184 -1.65076 -1.22136
C  1.09787  -0.583522 -2.096   
C -0.374044 -0.644943 -2.57288 
O -0.67703 -1.91097 -3.11432
C -2.02162 -2.38531 -2.92179
H -0.21526  4.05134 -1.90068
H -0.877196  5.01226  -0.838524
H -1.88517  3.60042 -1.42113
H -1.68433   1.76158   0.143005
H -2.15576  3.26231  1.15477
H 0.408525 1.67103  1.72617 
H -0.454407  2.67666   2.88709 
H 0.373674  0.0217203 3.494    
H -1.11983  -0.593138  3.88572 
H -0.87638 -2.13444  1.9298 
H -0.328449 -0.813224  0.964417
H  0.997065 -3.12521   0.606993
H  2.57104 -2.98158  1.31366
H  3.05479 -1.34145 -0.24322
H  1.72896  -0.384438  0.269765
H  1.81277  -0.585743 -2.93791 
H  1.29049   0.348143 -1.56791 
H -0.481787   0.0887295 -3.30891  
H -0.972896 -0.490841 -1.73752 
H -2.24022 -3.19765 -3.59952
H -1.97462 -2.83956 -1.88939
H -2.69857 -1.53623 -3.10221
