37

C -2.01779 -2.12287  6.9809 
O -0.871202 -1.95119   6.16084 
C -1.08579  -0.817043  5.25578 
C -1.68865 -1.30434  3.89914
O -1.01847  -0.567776  2.96973 
C -1.35541  -0.671688  1.62658 
C -1.137     0.778748  1.06651 
O -0.891356  0.821102 -0.20928 
C  0.366769  0.340238 -0.623837
C  0.961153  1.39951  -1.58719 
O  1.55483   0.699047 -2.66609 
C  1.35074  1.29341 -3.9738 
C  1.75762   0.317148 -5.04996 
O  1.41972   0.861412 -6.2989  
C  1.52684e+00 -3.88818e-03 -7.37138e+00
H -2.92867 -1.61193  6.58256
H -1.93323 -1.74181  7.95592
H -2.29751 -3.15697  6.93525
H -0.0683222 -0.566431   5.02324  
H -1.59199    0.0139191  5.70878  
H -1.54586 -2.36036  3.90685
H -2.69967  -0.936023  3.93239 
H -0.579557 -1.31258   1.07477 
H -2.25629 -1.18993  1.35458
H -2.1025   1.33767  1.30836
H -0.400916  1.27009   1.73099 
H  0.19531  -0.698388 -1.10756 
H 1.06877  0.135013 0.175161
H  1.62059  2.12953 -1.15403
H  0.148523  2.02736  -1.90595 
H  1.84247  2.22865 -4.19431
H  0.230713  1.33086  -4.16379 
H  1.38563  -0.655628 -4.94059 
H  2.78544  0.16851 -4.9542 
H  0.618388 -0.587996 -7.53379 
H  1.83751   0.584932 -8.33571 
H  2.32019  -0.713365 -7.26391 
