37

C -0.334347 -2.00592   7.01108 
O -0.961814 -2.01525   5.74791 
C -0.620925 -0.913371  5.03397 
C -1.20803 -1.09287  3.61362
O -1.12685   0.117973  2.9642  
C -2.16948   0.294896  2.05077 
C -1.56272   1.12332   0.870206
O -1.77721   0.459007 -0.273937
C -1.03576   0.945672 -1.29763 
C  0.130263 -0.02025  -1.64454 
O  0.563232  0.572396 -2.83995 
C  1.52987  -0.135783 -3.58963 
C  1.93054   0.864969 -4.71249 
O  2.46039    0.0376849 -5.80496  
C  2.82626   0.695189 -6.96156 
H -0.180616 -0.97157   7.40791 
H  0.726949 -2.24768   6.94965 
H -0.885893 -2.60763   7.67241 
H  0.563315 -0.837132  4.93468 
H -1.0159     0.0235495  5.45694  
H -0.711634 -2.06126   3.18064 
H -2.21509 -1.52534  3.65946
H -2.57471 -0.61487  1.60133
H -2.92609   0.875641  2.63064 
H -2.0075    2.1061    0.790514
H -0.457759  1.34794   1.07463 
H -0.438968  1.88827  -1.18523 
H -1.70578  1.19445 -2.14282
H -0.279947 -1.01584  -1.53136 
H  1.00219    0.0437919 -1.00419  
H  0.990239 -0.929176 -4.02027 
H  2.41821  -0.378114 -3.08374 
H  2.60084  1.67914 -4.37791
H  0.910929  1.25642  -5.0401  
H  2.39221   0.275128 -7.93378 
H  2.40956  1.70214 -7.0268 
H  3.85604   0.941992 -7.08971 
