37

C -2.47374 -7.37982  1.71991
O -2.84829 -6.0948   2.08191
C -2.49298 -5.09013  1.13955
C -1.50564 -4.18984  1.74852
O -1.14755  -3.25823   0.790407
C -0.906043 -2.00826   1.29224 
C -0.774251  -1.01379    0.0960283
O -0.646594  0.341912  0.340484
C 0.637345 0.930704 0.115899
C 0.431772 2.48253  0.151651
O  1.52534   2.93648  -0.567541
C  1.43078   4.34549  -0.788979
C  2.47818  4.64604 -1.92524
O  2.29416  5.98933 -2.34431
C  2.83897  6.37047 -3.58494
H -2.07775 -7.76937  2.64918
H -1.72885  -7.40219   0.905875
H -3.33471 -8.08706  1.47617
H -3.41884  -4.51004   0.982561
H -2.07067 -5.51115  0.22144
H -2.03628 -3.68474  2.58872
H -0.607949 -4.71515   2.06869 
H -1.6717 -1.5033  1.9214
H -0.164224 -2.02805   2.11572 
H  0.126577 -1.40176  -0.445422
H -1.65939  -1.26546  -0.533711
H  1.03913   0.686729 -0.905782
H 1.40665  0.492219 0.777602
H 0.293486 2.90738  1.19336 
H -0.562992  2.77013  -0.285119
H 1.60041  4.80108  0.148409
H  0.455265  4.58819  -1.23708 
H  2.11702  3.88711 -2.69889
H  3.50547  4.53833 -1.5703 
H  2.4316   7.37823 -3.73731
H  3.92463  6.30759 -3.51378
H  2.46751  5.76967 -4.3814 
