37

C -1.52274 -4.37004  5.28975
O -2.01661 -3.35321  4.43542
C -1.09526 -2.79565  3.52313
C -1.41292 -1.35869  3.30967
O -0.666154 -1.00047   2.19208 
C -0.724593  0.387782  1.96302 
C -0.375614  0.775167  0.556813
O -1.21706   1.83613   0.243136
C -1.36019  2.12287 -1.10142
C -0.303964  2.81198  -1.91697 
O  0.023311  2.09113  -3.08908 
C  1.36091  1.57059 -3.01027
C  1.45413   0.451814 -4.08457 
O  2.65327  -0.240863 -3.86131 
C  3.86377   0.261379 -4.3725  
H -1.87963 -5.39962  4.9507 
H -1.81755 -4.09067  6.2543 
H -0.411026 -4.49214   5.18641 
H -1.05155 -3.40342  2.64756
H -0.0582776 -2.8387     3.91558  
H -2.56853 -1.28686  3.21037
H -1.11208  -0.803086  4.17583 
H -1.68213   0.891887  2.18225 
H 0.0102185 0.830894  2.76353  
H 0.673477 1.07143  0.545483
H -0.57382    0.0489493 -0.191856 
H -2.19865  2.76451 -1.08607
H -1.61933  1.30807 -1.74637
H  0.53985  2.98236 -1.26805
H -0.669114  3.78607  -2.13072 
H  1.55313  1.0772  -2.00716
H  2.03167  2.43642 -3.20673
H  1.43093   0.788903 -5.10718 
H  0.573548 -0.147706 -3.9815  
H  4.62367   0.109102 -3.64677 
H  4.11158  -0.440631 -5.19775 
H  3.87037  1.19114 -4.76726
