37

C  0.193736  6.70621  -3.01971 
O -0.055311  6.1299   -1.71492 
C  0.275025  4.74723  -1.56882 
C -0.151269  4.15869  -0.208774
O  0.659457   2.9819    -0.0770274
C 0.684416 2.41646  1.22188 
C 1.42878 1.06006 1.15623
O 0.60295  0.212784 0.226981
C  1.04317  -1.1089    0.530438
C  0.206893 -2.1081   -0.325058
O  0.20404  -3.33644   0.395627
C -0.646123 -4.37643  -0.111672
C -1.12431 -5.13388  1.14694
O -1.6215   -6.41829   0.715997
C -2.62082 -7.16066  1.42321
H -0.287351  7.69626  -2.91746 
H -0.128466  6.03079  -3.75495 
H  1.22695  6.87957 -3.22125
H  1.3966   4.60548 -1.59288
H -0.0887038  4.09443   -2.33443  
H 0.0311941 4.87047   0.576715 
H -1.18534   3.94079  -0.223439
H 1.11172 2.9881  2.09952
H -0.341231  2.19238   1.63573 
H 2.49153  1.16308  0.666755
H 1.59068  0.608801 2.18213 
H  0.864815 -1.32337   1.63508 
H  2.10744  -1.2649    0.248494
H  0.480037 -2.09472  -1.3862  
H -0.817545 -1.71476  -0.374995
H -0.0501657 -5.00325   -0.814514 
H -1.54817  -3.99071  -0.680489
H -1.89034 -4.50181  1.67253
H -0.286293 -5.22545   1.8837  
H -3.59046 -6.72597  1.26348
H -2.6386  -8.21398  1.01749
H -2.44489 -7.27925  2.53386
