37

C -0.496874  2.07243  -5.83079 
O  0.37258  2.28037 -4.74766
C  0.810056  0.944115 -4.42434 
C  1.88874  1.13062 -3.41725
O  1.34637  1.44931 -2.14527
C  2.33884  1.74434 -1.14545
C 1.58521   2.37659   0.0337981
O 1.19196 1.42761 1.12089
C 0.21072  0.412978 0.877898
C  0.302768 -0.613301  2.05257 
O -0.927238 -1.32307   2.02251 
C -0.935527 -2.18828   3.21547 
C -2.36726 -2.76317  3.32737
O -2.38819 -3.78418  4.3121 
C -3.70729 -4.33344  4.51897
H  0.0715784  1.88138   -6.77939  
H -1.09943  3.03239 -5.97677
H -1.15634  1.26845 -5.5516 
H  1.07186   0.299455 -5.29471 
H -0.0278893  0.455879  -3.89255  
H  2.68674  0.43384 -3.35015
H  2.42218  2.02649 -3.84337
H  2.75989   0.771612 -0.803965
H  3.04158  2.45092 -1.53763
H 2.24353  3.09567  0.591346
H  0.744259  3.0517   -0.411305
H  0.227611   -0.00139645 -0.111796  
H -0.751156  0.95233   0.964825
H  0.410116  -0.0492254  2.99641  
H  1.16298 -1.2564   2.06304
H -0.722146 -1.54308   4.10102 
H -0.212533 -3.00376   3.14751 
H -2.77345 -3.04281  2.35146
H -3.08301 -2.03147  3.68172
H -4.15973 -4.91148  3.65368
H -3.50649 -5.1736   5.22792
H -4.31521 -3.61804  5.11453
