37

C -2.63286  2.69942 -6.42636
O -1.98371  1.52419 -5.90586
C -2.68928  1.09915 -4.68489
C -2.0531   -0.183871 -4.07654 
O -2.6797   -0.278739 -2.77951 
C -2.22656 -1.16404 -1.76946
C -1.87548  -0.40763  -0.506188
O -1.04942  -1.22455   0.388248
C -0.484273 -0.438412  1.5143  
C  0.683243 -1.28697   1.99668 
O  1.21719  -0.499926  3.05251 
C  2.49523  -0.941546  3.39831 
C  3.00128   -0.0845179  4.58861  
O  4.35275 -0.47273  4.83963
C 4.69309  0.148943 6.08568 
H -3.68095  2.82515 -6.07264
H -2.52476  2.71505 -7.51221
H -1.99143  3.56677 -6.18322
H -3.77972   0.954122 -4.82262 
H -2.63764  1.88369 -3.90519
H -2.34147 -1.04771 -4.67863
H -0.947525 -0.116244 -3.94176 
H -3.04562 -1.92142 -1.58404
H -1.33693 -1.80247 -1.97617
H -1.51216   0.644759 -0.772646
H -2.84684   -0.215376   0.0422595
H -1.19123  -0.350563  2.31692 
H -0.126089  0.579364  1.22169 
H  1.51158 -1.32499  1.20289
H  0.340199 -2.25196   2.38272 
H  3.1694   -0.749645  2.53161 
H  2.48359 -2.00197  3.70938
H  2.27187  -0.196023  5.40418 
H 2.98377  0.902083 4.12632 
H  5.81764   -0.0724212  6.34867  
H 4.78072 1.25961 6.07651
H  4.04252  -0.126744  6.91716 
