37

C -2.87236  5.16434  3.86873
O -1.7251   4.54132  3.28885
C -1.91006  3.35659  2.54496
C -1.38727  3.57512  1.08193
O -1.44155   2.26887   0.534248
C -0.853926  2.0029   -0.728028
C -1.6307    0.873367 -1.48252 
O -0.741534  0.364943 -2.36168 
C -0.468457 -0.994891 -2.41265 
C  0.925004 -1.27214  -1.83744 
O  0.929182 -2.61681  -1.43795 
C  2.07828  -3.1331   -0.791542
C  1.53832  -4.46895  -0.289246
O  2.55569  -5.23549   0.337386
C  3.7813   -5.48617  -0.371594
H -3.75725  4.80915  3.43106
H -2.8376   6.26548  3.66844
H -2.90283  5.052    4.92343
H -2.97209  3.08824  2.33945
H -1.40431  2.52278  2.91423
H -2.05707  4.2356   0.51272
H -0.380072  3.95179   1.0914  
H -0.811789  2.89764  -1.3734  
H  0.161827  1.73122  -0.619992
H -2.22453   0.15842  -0.947273
H -2.43636  1.31053 -2.02216
H -0.595248 -1.32475  -3.42305 
H -1.20147 -1.67097 -1.89176
H  1.19039  -0.629158 -0.92732 
H  1.71315  -0.988816 -2.60103 
H  2.55296   -2.54761    0.0288347
H  2.84349 -3.34606 -1.59387
H  1.16679 -4.98705 -1.16416
H  0.760556 -4.33039   0.480513
H  3.59476 -5.79058 -1.35724
H  4.57629  -4.74232  -0.316281
H  4.24417  -6.26254   0.189242
