37

C  6.81107 -1.50361 -1.25089
O  6.44809  -0.125775 -1.25046 
C  5.16859   0.289945 -0.729842
C  3.9724   -0.246763 -1.55236 
O  2.83213   0.199802 -0.836931
C  1.54015 -0.0396  -1.38055
C  0.670055 -0.811656 -0.339202
O -0.454966 -1.25266  -1.08357 
C -1.60613  -1.5693   -0.339729
C -2.51949  -0.340487 -0.120702
O -3.51804  -0.566022  0.884536
C -3.57733   0.697391  1.60033 
C -4.80729   0.597266  2.52849 
O -6.02896   0.948727  1.8122  
C -6.06538  2.39398  1.7547 
H  5.93459 -2.11251 -1.46183
H  7.10186  -1.96547  -0.323802
H  7.6273  -1.6981  -1.96175
H  5.16798   1.39529  -0.999007
H 4.99963   0.0727242 0.351061 
H  3.96464   0.202907 -2.61612 
H  3.93598 -1.42724 -1.73473
H  1.12159   0.975184 -1.64315 
H  1.62912  -0.677955 -2.27851 
H  1.14112  -1.69592   0.165456
H  0.408837 -0.147295  0.511292
H -1.47437  -2.08817   0.566354
H -2.11944 -2.36523 -1.01093
H -2.88087   0.108537 -1.07276 
H -1.74077   0.471353  0.233006
H -3.6265    1.55232   0.895059
H -2.62222   0.804998  2.17554 
H -4.66288  1.14779  3.4558 
H -4.92561  -0.463343  2.77522 
H -6.93976  2.683    1.13246
H -6.31462  2.70327  2.80548
H -5.14608  2.88612  1.36917
