37

C -6.56481  1.80627  1.81064
O -6.49302  1.19935  0.49698
C -5.57955   0.136026  0.413711
C -4.16049   0.461939 -0.128736
O -3.42533   -0.744082  -0.0274872
C -2.10615  -0.602141 -0.493028
C -1.22875  -0.202403  0.649679
O -0.121318   0.401422   0.0663313
C 1.12019  0.598807 0.724318
C  2.18648   0.776281 -0.311257
O  3.20192   -0.0811635  0.113769 
C  3.8794   -0.955112 -0.816598
C  5.09612   -1.35178   -0.0176246
O  6.23858  -1.77053  -0.751241
C  6.7622   -0.814017 -1.60558 
H -7.52597  1.57956  2.36128
H -6.56369  2.94575  1.62734
H -5.71275  1.45157  2.40318
H -6.05202  -0.517105 -0.381644
H -5.321    -0.342404  1.34573 
H -4.16529   0.814726 -1.147   
H -3.7488    1.22905   0.502429
H -1.9184   -1.51578  -0.945012
H -1.909     0.172437 -1.21281 
H -1.86939   0.355352  1.3701  
H -1.02524 -1.14408  1.19642
H  1.42899 -0.34264  1.30547
H 1.0307  1.32406 1.47921
H  2.52697   1.81485  -0.496174
H  1.83105   0.454434 -1.32292 
H  4.17856 -0.47717 -1.73712
H  3.23856 -1.75319 -1.16963
H  4.89259  -2.13489   0.754753
H  5.39901  -0.502851  0.640699
H  6.30945  0.1496  -1.47543
H  7.83177 -0.74475 -1.38605
H  6.72182 -1.19089 -2.69116
