37

C -5.01588   -0.0418942  4.43891  
O -3.63277  -0.109708  4.22777 
C -3.45633  -0.232338  2.85265 
C -3.51778 -1.55234  2.03667
O -2.95057  -1.25954   0.730632
C -2.74134  -2.34943  -0.141422
C -1.97189 -1.67036 -1.28705
O -0.545503 -1.82614  -1.00529 
C  0.289151 -0.7919   -1.62055 
C  1.51057  -0.41004  -0.823785
O  2.27411   0.346304 -1.74718 
C  3.51962   0.816481 -1.22591 
C  4.01201  1.99912 -2.16397
O  5.32449  2.30481 -1.84265
C  5.78133  3.25946 -2.74816
H -5.17267  -0.296461  5.52404 
H -5.51363  -0.786508  3.7938  
H -5.37071   0.979299  4.15453 
H -2.45405    0.0264864  2.55565  
H -4.16276   0.407696  2.22001 
H -2.92605 -2.35074  2.4304 
H -4.56853 -1.87679  1.91654
H -2.21202  -3.20025   0.371922
H -3.64163  -2.7206   -0.535432
H -2.28412 -2.15544 -2.17243
H -2.28956  -0.631064 -1.50605 
H -0.336963  0.161443 -1.75732 
H  0.6286  -1.11648 -2.59609
H  2.07517  -1.2431   -0.432821
H 1.2767   0.229654 0.116895
H  4.29505   -0.0197545 -1.34571  
H  3.36177   1.0308   -0.215615
H  3.34508  2.88239 -2.0127 
H  3.89492  1.60288 -3.20242
H  6.84223  3.26256 -2.81791
H  5.416    3.16129 -3.78581
H  5.49214  4.26832 -2.50105
