37

C -0.625316  5.03453  -4.8269  
O -1.8104   4.28513 -4.49069
C -1.76112  3.96619 -3.12032
C -2.92071  2.95999 -2.85293
O -2.89709  2.12287 -1.72172
C -1.65059  1.46418 -1.52387
C -1.89035   0.611564 -0.235288
O -1.16427  -0.598555 -0.275506
C -0.45227  -0.835538  1.02677 
C  0.407028 -2.14995   1.04981 
O  1.08182 -2.29476  2.30683
C  2.01779 -3.35929  2.17704
C  2.74981 -3.32309  3.52017
O  3.36353 -4.59599  3.71297
C  4.18639 -4.62765  4.94132
H -0.871916  5.63583  -5.75826 
H  0.186174  4.349    -5.07605 
H -0.21136  5.60528 -3.9552 
H -1.9092   4.87619 -2.49153
H -0.753645  3.58271  -2.86688 
H -3.8569   3.58702 -2.68557
H -3.14301  2.41958 -3.77847
H -1.3481    0.771352 -2.29914 
H -0.802827  2.20964  -1.33917 
H -1.65033   1.20353   0.633706
H -2.96576   0.258291 -0.11048 
H -1.15791  -0.641168  1.8884  
H  0.422979 -0.187815  1.29649 
H  1.21123  -1.89593   0.184729
H -0.189147 -3.06926   0.838259
H  2.77752 -3.0339   1.41983
H  1.54831 -4.34136  2.011  
H  2.03411 -3.10138  4.38089
H  3.51211 -2.53251  3.49781
H  5.04754 -3.96546  4.79058
H  3.65179 -4.43674  5.82073
H  4.58392 -5.66295  5.00661
