37

C  2.45145 -2.55505 -4.93365
O  2.1091  -2.30924 -3.56857
C  2.07114 -0.9057  -3.31102
C  1.69707  -0.743559 -1.80961 
O  1.17506   0.578652 -1.57557 
C  1.49197   1.32173  -0.399296
C 0.740381 0.977917 0.82828 
O  1.1332   -0.400441  1.18869 
C  0.0744863 -1.19844    1.75857  
C -1.14249  -1.45746   0.868168
O -2.07562  -0.384219  0.919066
C -3.00838  -0.326983  2.00248 
C -3.29755  1.14013  2.22188
O -2.08189  1.81757  2.66383
C -2.40527  3.1274   3.01684
H  1.68129 -2.14068 -5.63207
H  2.38965 -3.6403  -4.96245
H  3.43547 -2.06631 -5.21037
H  1.19498  -0.580509 -3.90441 
H  3.0084   -0.462132 -3.6292  
H  0.839286 -1.46312  -1.66234 
H  2.42263 -1.05867 -1.0276 
H  2.59162   1.2518   -0.162979
H  1.41977   2.32624  -0.829182
H 0.886518 1.6831   1.56827 
H -0.360939  1.1039    0.65326 
H -0.335503 -0.791791  2.68284 
H  0.616006 -2.21655   2.02925 
H -1.59741  -2.44997   0.941162
H -0.787956 -1.5718   -0.156144
H -2.54496  -0.621765  2.9367  
H -3.87752  -0.921575  1.75432 
H -4.11487  1.41702  2.93654
H -3.69132  1.61258  1.3178 
H -2.94131  3.68731  2.20891
H -2.96583  3.17002  3.92417
H -1.37939  3.57498  3.08022
