37

C -2.14929  3.71335  6.38877
O -1.55335  3.83866  5.06208
C -1.93753  2.79936  4.14687
C -0.999792  2.80511   2.91733 
O -1.48793  1.84325  2.04881
C -0.771822  1.70181   0.869291
C -1.67241   0.913529 -0.14942 
O -0.790899  0.711744 -1.23645 
C -0.938968 -0.431775 -2.0167  
C  0.432969 -0.729306 -2.53622 
O  0.68258 -2.03649 -2.35549
C  1.97711 -2.5681  -2.7544 
C  1.83954 -4.07813 -2.6444 
O  3.04851 -4.6526  -3.14225
C  3.04716 -4.84733 -4.57914
H -2.89537  4.44235  6.45807
H -1.37727  3.95865  7.17448
H -2.39238  2.64277  6.54753
H -2.97071  3.08281  3.82104
H -1.91093  1.81563  4.6482 
H -0.916773  3.75442   2.47368 
H 0.00996845 2.54548    3.23392   
H -0.380418  2.65458   0.393281
H 0.191875 1.09105  1.01995 
H -2.03713    -0.00383249  0.303979  
H -2.49898   1.56469  -0.342157
H -1.68614  -0.216856 -2.81797 
H -1.19739 -1.35532 -1.46431
H  1.11345   -0.0864422 -1.95902  
H  0.602553 -0.542848 -3.55636 
H  2.77494 -2.29809 -2.07402
H  2.27473 -2.2677  -3.81988
H  1.00385 -4.5007  -3.22573
H  1.66863 -4.36396 -1.62612
H  3.11731 -3.77426 -4.99862
H  3.90597 -5.4421  -4.83049
H  2.15599 -5.32278 -4.97692
