37

C -1.19434 -5.25913  1.90018
O -0.672197 -3.95242   1.91978 
C -0.625342 -3.31906   0.5707  
C  0.576363 -2.42463   0.47994 
O  0.529671 -1.91264  -0.821321
C  1.79801 -1.28133 -1.14765
C  1.6807   -0.432691 -2.33172 
O  0.931964  0.82142  -1.98918 
C -0.402935  0.759647 -2.38317 
C -1.13577  2.17159 -2.2953 
O -1.56561  2.4764  -1.00475
C -0.463407  2.84217  -0.159295
C -0.935646  2.96855   1.27117 
O 0.258409 2.8992   2.00553 
C 0.221583 2.55525  3.34725 
H -0.578186 -5.85939   1.1963  
H -2.20445 -5.21142  1.37826
H -1.28108 -5.64478  2.93107
H -1.53366  -2.72022   0.468036
H -0.710201 -3.94634  -0.282571
H  0.651102 -1.55808   1.10304 
H  1.39551  -3.062     0.598455
H  2.09633  -0.649804 -0.251913
H  2.62558 -2.00825 -1.26898
H  2.71871  -0.157249 -2.76129 
H  1.17472 -1.05671 -3.08523
H -0.878336    0.00868704 -1.75043   
H -0.546426  0.478722 -3.41898 
H -1.98142  2.2394  -3.02831
H -0.435192  2.96235  -2.66268 
H -0.0788992  3.84101   -0.471289 
H  0.294432  2.08422  -0.266098
H -1.58283  2.07642  1.69292
H -1.58133  3.89333  1.57788
H 1.21543 2.25476 3.7633 
H -0.165357  3.36702   4.03179 
H -0.469193  1.69557   3.50629 
