37

C -7.0312   -1.98999   0.927553
O -6.54333  -0.718891  0.453823
C -5.59419 -0.14375  1.31642
C -4.16741  -0.277702  0.905422
O -3.49552   0.594772  1.69165 
C -2.32152  1.22573  1.27736
C -1.41239   0.251929  0.573751
O -0.0745302  0.779536   0.573172 
C  0.709685   0.0156821 -0.230483 
C  2.1581    0.601074 -0.253463
O  3.01481  -0.321398 -0.967548
C  4.14476   0.216787 -1.641   
C  5.33662 -0.70688 -1.56904
O  6.45801   0.129259 -1.62696 
C  7.60305  -0.566104 -1.22207 
H -6.26081 -2.65634  1.33831
H -7.39924  -2.54141   0.046958
H -7.97622 -1.97206  1.51452
H -5.78525  -0.412958  2.33561 
H -5.83577   0.942509  1.26767 
H -3.9778   -1.40202   0.995203
H -4.06893   -0.0294195 -0.226845 
H -2.3225    2.11625   0.612659
H -2.01378  1.69509  2.21989
H -1.41444  -0.725552  1.13358 
H -1.61479    0.0924332 -0.521537 
H  0.259726  0.105772 -1.2625  
H  0.865606  -1.04469    0.0642895
H 2.50162  0.714281 0.755402
H  2.08067   1.65208  -0.755007
H  4.54266  1.1778  -1.20481
H  3.97503  0.39086 -2.71962
H  5.31006 -1.47661 -2.41673
H  5.29955  -1.31462  -0.656752
H  7.46442  -1.12304  -0.319507
H  8.03178 -1.30844 -1.98538
H  8.32441   0.221449 -1.0965  
