30

C  0.030228 -0.486592  4.729474
O -0.819758 -0.424373  3.605933
C -0.337358  0.368423  2.540396
C -1.396624  0.318106  1.443235
O -0.896329  1.081606  0.361964
C -1.695372  1.071229 -0.809312
C -0.94831   1.88793  -1.881128
O -0.748855  1.130839 -3.059327
C  0.507725  0.503536 -3.207581
C  0.738036 -0.607097 -2.175631
O  1.969339 -1.212506 -2.521861
C  2.378337 -2.249507 -1.658838
H 0.192501 0.509849 5.163834
H -0.463041 -1.123591  5.466074
H  1.00532  -0.922276  4.469778
H  0.616136 -0.025266  2.153331
H -0.178935  1.410042  2.861252
H -2.345114  0.735215  1.815181
H -1.569094 -0.726478  1.140917
H -2.681273  1.514748 -0.59798 
H -1.853151  0.042799 -1.16596 
H -1.546189  2.762499 -2.166493
H  0.006201  2.241002 -1.46847 
H  0.515432  0.065921 -4.211338
H  1.324507  1.23844  -3.136835
H  0.784688 -0.189015 -1.158039
H -0.085116 -1.33849  -2.217296
H  1.651613 -3.074152 -1.651345
H  3.335219 -2.617618 -2.033973
H  2.509245 -1.885224 -0.629941
