30

C  0.52155  -0.632509  4.127064
O -0.540338 -0.367482  3.239411
C -0.166134  0.305387  2.043003
C -1.324861  0.480981  1.270444
O -0.944743  1.136397  0.063981
C -1.952961  1.23691  -0.925884
C -1.342171  1.92684  -2.151737
O -0.570311  1.056638 -2.947465
C  0.703022  0.679399 -2.450678
C  0.673842 -0.763863 -1.939944
O  2.002167 -1.082431 -1.5681  
C  2.159129 -2.347609 -0.968438
H 1.004914 0.2962   4.461714
H  0.094208 -1.146076  4.99051 
H  1.280184 -1.277823  3.661763
H  0.590713 -0.292036  1.501373
H 0.307613 1.272934 2.29115 
H -2.081542  1.08793   1.800201
H -1.799333 -0.488239  1.032268
H -2.798718  1.837064 -0.552841
H -2.325933  0.239444 -1.204045
H -2.153626  2.286594 -2.795099
H -0.743997  2.787669 -1.81653 
H  1.418594  0.747522 -3.280304
H  1.03228   1.349975 -1.646615
H -0.002709 -0.852697 -1.077948
H  0.313982 -1.435492 -2.735359
H  1.847081 -3.155107 -1.645965
H  3.220212 -2.462816 -0.738033
H  1.577899 -2.423703 -0.037878
