30

C  0.502879 -0.599197  4.214951
O -0.524045 -0.348328  3.281622
C -0.095557  0.25837   2.079779
C -1.351308  0.453171  1.227159
O -0.964822  1.11938   0.044989
C -1.967559  1.232192 -0.951357
C -1.347542  1.934789 -2.165106
O -0.570333  1.072774 -2.964455
C  0.701084  0.692762 -2.464826
C  0.671721 -0.755025 -1.967055
O  2.000543 -1.077522 -1.600294
C  2.157981 -2.348094 -1.012323
H 0.998392 0.331747 4.52426 
H  0.035298 -1.063637  5.085244
H  1.25908  -1.282317  3.803098
H  0.634632 -0.379072  1.55486 
H 0.372188 1.236221 2.27263 
H -2.021571  1.067163  1.851213
H -1.82676  -0.5137    1.011762
H -2.814684  1.829091 -0.57702 
H -2.33911   0.2381   -1.242453
H -2.154216  2.301884 -2.810362
H -0.751446  2.791645 -1.816325
H  1.420417  0.76893  -3.290493
H  1.02567   1.356864 -1.653508
H -0.003541 -0.851618 -1.104915
H  0.310491 -1.419034 -2.768235
H  1.844548 -3.149352 -1.696599
H  3.219383 -2.465765 -0.784654
H  1.578198 -2.432421 -0.081564
