30

C  0.349185 -0.980573  4.007689
O -0.52755  -0.142461  3.288803
C -0.354337 -0.170459  1.886342
C -1.367008  0.808187  1.298456
O -1.196877  0.770824 -0.103838
C -1.963462  1.712183 -0.825265
C -1.675918  1.591015 -2.350383
O -0.868034  0.503875 -2.711831
C  0.506103  0.559194 -2.358176
C  0.895539 -0.816517 -1.819076
O  2.244215 -0.726541 -1.397778
C  2.757083 -1.901073 -0.81373 
H  1.398479 -0.699349  3.840213
H  0.109282 -0.859412  5.065766
H  0.216686 -2.034613  3.725335
H -0.535189 -1.180429  1.485299
H 0.665599 0.137484 1.607435
H -1.178958  1.819314  1.692394
H -2.3884    0.508461  1.580721
H -1.726689  2.734797 -0.487285
H -3.037297  1.541106 -0.640776
H -2.626237  1.445505 -2.877514
H -1.233714  2.537815 -2.704035
H  1.109195  0.800561 -3.246283
H  0.696944  1.317897 -1.590147
H  0.235303 -1.078522 -0.978971
H  0.778084 -1.578729 -2.605199
H  2.730789 -2.744716 -1.518222
H  3.793819 -1.695935 -0.538928
H  2.193377 -2.178889  0.089004
