30

C  0.583019 -0.676955  4.110747
O -0.480116 -0.390799  3.230227
C -0.101292  0.309538  2.053827
C -1.372236  0.501838  1.23229 
O -0.98677   1.164609  0.042928
C -1.980372  1.247791 -0.964581
C -1.353347  1.929492 -2.186751
O -0.559495  1.057255 -2.958474
C  0.701955  0.686223 -2.427333
C  0.665023 -0.758846 -1.922361
O  1.975649 -1.061774 -1.481307
C  2.122706 -2.337829 -0.902199
H 1.066424 0.243319 4.467633
H  0.155895 -1.21122   4.961657
H  1.341324 -1.310931  3.62975 
H  0.633182 -0.269115  1.472533
H 0.340169 1.286625 2.302554
H -2.103244  1.099606  1.798223
H -1.820088 -0.478661  1.008978
H -2.836213  1.845476 -0.611438
H -2.341406  0.244855 -1.238295
H -2.155569  2.275219 -2.849043
H -0.768624  2.798971 -1.850111
H  1.440817  0.761839 -3.235667
H  1.004114  1.355134 -1.611503
H -0.055524 -0.85858  -1.097949
H  0.356366 -1.432872 -2.737029
H  1.866927 -3.134469 -1.615224
H  3.170688 -2.438596 -0.612668
H  1.490047 -2.447147 -0.009393
