30

C 0.454875 0.289859 4.325754
O -0.588379  0.317554  3.378235
C -0.300937 -0.342292  2.159871
C -1.461906 -0.074412  1.196345
O -0.983192  0.784234  0.175788
C -1.920838  1.118911 -0.83203 
C -1.223853  2.052245 -1.829162
O -0.399356  1.365915 -2.743661
C  0.829343  0.855477 -2.253818
C  0.750835 -0.665796 -2.097069
O  2.050961 -1.099294 -1.74194 
C  2.173554 -2.486965 -1.53344 
H 1.361529 0.773679 3.936214
H 0.103245 0.838146 5.201811
H  0.702585 -0.740105  4.620126
H -0.180524 -1.424619  2.330646
H 0.63051  0.043988 1.718798
H -2.289006  0.400582  1.745043
H -1.829052 -1.016198  0.758131
H -2.788171  1.637044 -0.391931
H -2.27743   0.214913 -1.349421
H -1.986337  2.56037  -2.430964
H -0.648629  2.806001 -1.270638
H  1.607911  1.094865 -2.98977 
H  1.099003  1.315086 -1.29448 
H  0.024039 -0.936824 -1.31755 
H  0.428638 -1.121269 -3.046854
H  1.920514 -3.053237 -2.441168
H  3.215337 -2.679917 -1.269391
H  1.524743 -2.827941 -0.713456
