30

C  0.563978 -0.669835  4.129752
O -0.489003 -0.379921  3.237797
C -0.098222  0.306278  2.065952
C -1.357382  0.507685  1.234033
O -0.97522   1.160725  0.043629
C -1.973106  1.246244 -0.959627
C -1.351244  1.92782  -2.184392
O -0.564287  1.054577 -2.961836
C  0.701638  0.683673 -2.441513
C  0.668119 -0.758908 -1.929211
O  1.987517 -1.067837 -1.519433
C  2.139113 -2.337683 -0.928122
H 1.051947 0.248734 4.484699
H  0.125015 -1.195081  4.980133
H  1.320823 -1.313015  3.658874
H  0.634835 -0.280858  1.49    
H 0.351786 1.281727 2.308832
H -2.12464   1.071553  1.793222
H -1.859088 -0.456341  1.038991
H -2.826204  1.844933 -0.601711
H -2.336956  0.243915 -1.23174 
H -2.156531  2.276454 -2.841444
H -0.762378  2.79539  -1.85006 
H  1.432128  0.753653 -3.257903
H  1.013351  1.356518 -1.632467
H -0.032186 -0.850994 -1.086727
H  0.335496 -1.434249 -2.733292
H  1.856915 -3.141013 -1.623457
H  3.193681 -2.444384 -0.665912
H  1.530114 -2.429759 -0.017048
