30

C  1.32539  -0.359977  2.928947
O  0.240979 -0.335032  2.029016
C -0.852972  0.460408  2.448163
C -1.818257  0.611263  1.273649
O -1.128293  1.220359  0.201604
C -1.862434  1.338618 -1.003757
C -0.920375  1.896887 -2.083042
O -0.375481  0.88587  -2.902164
C  0.848601  0.297368 -2.507248
C  0.667526 -0.769139 -1.420586
O  1.823036 -1.590076 -1.4791  
C  1.83452  -2.636947 -0.536843
H  1.032793 -0.786337  3.899298
H  2.096743 -0.988521  2.480226
H 1.73161  0.647866 3.093278
H -0.507727  1.449248  2.784729
H -1.375705 -0.05304   3.272387
H -2.679633  1.222854  1.588593
H -2.186724 -0.382782  0.972847
H -2.715503  2.02221  -0.86145 
H -2.250615  0.359596 -1.322862
H -1.494364  2.554057 -2.748498
H -0.128558  2.488268 -1.60104 
H  1.25311  -0.188197 -3.402882
H  1.562149  1.065243 -2.172553
H  0.569966 -0.314343 -0.426099
H -0.239325 -1.358128 -1.632007
H  0.996116 -3.330186 -0.697191
H  2.775371 -3.176306 -0.666144
H  1.778067 -2.251103  0.490748
