30

C  0.596609 -0.68802   4.089441
O -0.473138 -0.393099  3.219328
C -0.106829  0.315137  2.052372
C -1.380544  0.511705  1.236736
O -0.991707  1.170302  0.044747
C -1.982283  1.248692 -0.96588 
C -1.352975  1.928123 -2.188172
O -0.555708  1.055145 -2.955542
C  0.703788  0.685548 -2.418792
C  0.665386 -0.758823 -1.911945
O  1.974781 -1.061374 -1.466959
C  2.120256 -2.337032 -0.886592
H 1.082487 0.228987 4.451233
H  0.176091 -1.230647  4.938243
H  1.351146 -1.316913  3.596055
H  0.623537 -0.255127  1.456963
H 0.335975 1.291661 2.303909
H -2.124607  1.10846   1.785655
H -1.825406 -0.470559  1.012173
H -2.840324  1.845868 -0.617093
H -2.34079   0.24433  -1.237792
H -2.153904  2.270892 -2.853555
H -0.770495  2.799379 -1.852204
H  1.44588   0.760243 -3.224253
H  1.002331  1.355874 -1.602807
H -0.05736  -0.857426 -1.089331
H  0.358781 -1.433815 -2.72659 
H  1.866442 -3.134161 -1.599775
H  3.167439 -2.437599 -0.594107
H  1.485155 -2.44575   0.004555
