30

C  0.586012 -0.67675   4.106097
O -0.476674 -0.391103  3.224434
C -0.101788  0.307296  2.054363
C -1.372652  0.498937  1.231423
O -0.987304  1.163937  0.043339
C -1.980626  1.248513 -0.964279
C -1.352569  1.930596 -2.185705
O -0.559133  1.058227 -2.957775
C  0.701933  0.686157 -2.426538
C  0.66424  -0.758927 -1.92175 
O  1.97362  -1.060839 -1.476329
C  2.119772 -2.336907 -0.897004
H 1.06788  0.24496  4.464223
H  0.159173 -1.212388  4.956169
H  1.345759 -1.308654  3.624767
H  0.633845 -0.267563  1.469663
H 0.338165 1.28634  2.300683
H -2.10515   1.094679  1.797602
H -1.818707 -0.48203   1.006425
H -2.836388  1.846154 -0.611014
H -2.341934  0.245881 -1.238943
H -2.15396   2.278086 -2.848014
H -0.766715  2.798935 -1.847954
H  1.440852  0.761599 -3.23487 
H  1.004433  1.354649 -1.610484
H -0.059003 -0.859067 -1.099749
H  0.358815 -1.433308 -2.737345
H  1.867178 -3.133592 -1.611117
H  3.166831 -2.436825 -0.603858
H  1.484106 -2.446993 -0.006441
