30

C  0.489706 -0.246755  4.329953
O -0.558251 -0.076648  3.402077
C -0.15045  -0.048345  2.048422
C -1.397642  0.226127  1.204644
O -0.98075   0.993827  0.089828
C -1.958395  1.197545 -0.915725
C -1.306343  1.998719 -2.048974
O -0.509024  1.204592 -2.897811
C  0.747183  0.778009 -2.397746
C  0.701061 -0.707026 -2.026821
O  2.018447 -1.06628  -1.65292 
C  2.157114 -2.383867 -1.174577
H 1.221207 0.570599 4.260759
H  0.038293 -0.241913  5.323893
H  1.011141 -1.201868  4.174649
H  0.320867 -1.00097   1.758911
H 0.576348 0.762188 1.880361
H -2.124675  0.789218  1.810486
H -1.869512 -0.712604  0.877193
H -2.812579  1.764564 -0.511672
H -2.326635  0.234603 -1.301196
H -2.09516   2.421778 -2.681874
H -0.718526  2.820857 -1.613505
H  1.489475  0.921075 -3.193683
H  1.050431  1.368882 -1.523968
H  0.002229 -0.874418 -1.194734
H  0.360403 -1.298222 -2.891524
H  1.861415 -3.120934 -1.934716
H  3.211461 -2.525614 -0.928619
H  1.551174 -2.547121 -0.271091
