30

C 0.439621 0.209878 4.364713
O -0.596821  0.256945  3.410216
C -0.264778 -0.285811  2.147102
C -1.441606 -0.024278  1.199905
O -0.975038  0.819377  0.161228
C -1.922142  1.131753 -0.845082
C -1.235466  2.044607 -1.867993
O -0.418616  1.340154 -2.775511
C  0.815459  0.841727 -2.286852
C  0.740569 -0.675704 -2.094866
O  2.04515  -1.099531 -1.744475
C  2.170822 -2.481218 -1.500873
H 1.319724 0.774925 4.027179
H 0.050793 0.66257  5.278805
H  0.743766 -0.825358  4.575648
H -0.070157 -1.367494  2.234976
H 0.639852 0.190354 1.738943
H -2.255333  0.463846  1.757242
H -1.824317 -0.967824  0.779752
H -2.786276  1.657896 -0.408212
H -2.281913  0.216588 -1.340054
H -2.004143  2.539149 -2.47322 
H -0.656065  2.810613 -1.330819
H  1.586143  1.065058 -3.036012
H  1.094468  1.323288 -1.34102 
H  0.022978 -0.92987  -1.30132 
H  0.408397 -1.152932 -3.030423
H  1.906583 -3.071335 -2.390019
H  3.215899 -2.667088 -1.244901
H  1.532458 -2.800283 -0.664035
