30

C 0.517295 0.488782 4.16848 
O -0.548905  0.485618  3.246899
C -0.441055 -0.476401  2.216267
C -1.543958 -0.200478  1.194598
O -1.017451  0.67931   0.217774
C -1.920099  1.076558 -0.798759
C -1.189264  2.067378 -1.712744
O -0.336666  1.436385 -2.641165
C  0.875126  0.892966 -2.144785
C  0.788112 -0.634522 -2.077799
O  2.08599  -1.095561 -1.749562
C  2.204037 -2.494596 -1.637428
H 1.474996 0.696054 3.670864
H 0.309667 1.279866 4.891534
H  0.594479 -0.472146  4.697423
H -0.55808  -1.493228  2.627318
H  0.538724 -0.414284  1.718852
H -2.408257  0.2545    1.701319
H -1.867136 -1.143789  0.724951
H -2.80113   1.569756 -0.357274
H -2.26019   0.206766 -1.381978
H -1.9308    2.615052 -2.306012
H -0.631183  2.782334 -1.089626
H  1.675488  1.169168 -2.843519
H  1.117868  1.297351 -1.153918
H  0.05989  -0.948303 -1.315841
H  0.464046 -1.03022  -3.053423
H  1.952088 -2.995836 -2.582964
H  3.244492 -2.70863  -1.384553
H  1.551886 -2.889853 -0.844911
