30

C  0.558043 -0.643518  4.151893
O -0.481896 -0.377535  3.235423
C -0.08431   0.283704  2.058558
C -1.360246  0.477851  1.235821
O -0.978069  1.148556  0.05002 
C -1.973693  1.238292 -0.954814
C -1.350702  1.932243 -2.172136
O -0.557172  1.068587 -2.953869
C  0.704007  0.691059 -2.426717
C  0.665767 -0.759527 -1.937956
O  1.976575 -1.069524 -1.502358
C  2.123741 -2.35476  -0.943938
H 1.046732 0.284525 4.480171
H  0.103767 -1.135104  5.014245
H  1.316386 -1.30758   3.714797
H  0.653264 -0.223518  1.419101
H 0.33877  1.274822 2.299387
H -2.094005  1.06877   1.805137
H -1.803606 -0.503618  1.007039
H -2.830179  1.830981 -0.594842
H -2.333205  0.237034 -1.236666
H -2.154943  2.282796 -2.829418
H -0.766564  2.799507 -1.828791
H  1.443091  0.774974 -3.234037
H  1.006446  1.350809 -1.603595
H -0.053659 -0.867699 -1.113599
H  0.354807 -1.423636 -2.759866
H  1.868802 -3.139764 -1.670063
H  3.171571 -2.459832 -0.655386
H  1.490492 -2.478897 -0.053522
