30

C -1.709876  0.577642  5.650803
O -1.183087  0.0116    4.471664
C -1.056206  0.91041   3.388183
C -0.487436  0.109396  2.22074 
O -0.347153  1.010725  1.139716
C  0.147275  0.440685 -0.058537
C  0.163147  1.556878 -1.120155
O -0.449014  1.154488 -2.327347
C  0.375436  0.609026 -3.332522
C  0.71826  -0.862105 -3.066547
O  1.400435 -1.321061 -4.216281
C  1.768767 -2.682038 -4.185515
H -2.721917  0.973778  5.486902
H -1.752688 -0.220082  6.394837
H -1.069494  1.38818   6.026363
H -0.375406  1.739231  3.638844
H -2.033371  1.33476   3.108887
H -1.172673 -0.712745  1.961831
H  0.485301 -0.323234  2.502788
H -0.516527 -0.370946 -0.395545
H 1.153936 0.021988 0.100299
H -0.408828  2.406812 -0.729974
H  1.192692  1.899222 -1.304424
H -0.190961  0.672869 -4.268103
H  1.30416  1.18944 -3.44325
H  1.355326 -0.958629 -2.172399
H -0.206797 -1.435987 -2.89823 
H  0.88757  -3.33273  -4.096735
H  2.278956 -2.894238 -5.126951
H  2.450183 -2.893336 -3.349321
