30

C  0.535941 -0.682727  4.180449
O -0.449414 -0.354677  3.230692
C -0.071532  0.322414  2.052656
C -1.348469  0.510675  1.238743
O -0.971057  1.159884  0.03954 
C -1.975594  1.240255 -0.957298
C -1.363722  1.921113 -2.187569
O -0.580099  1.0484   -2.968989
C  0.690628  0.68212  -2.45722 
C  0.664729 -0.75926  -1.941164
O  1.987999 -1.06389  -1.540894
C  2.147513 -2.332117 -0.948212
H 1.033815 0.215556 4.57331 
H  0.023795 -1.195312  4.996577
H  1.29932  -1.351003  3.756048
H  0.655632 -0.265489  1.469456
H 0.377647 1.302376 2.279808
H -2.072385  1.116695  1.805013
H -1.801467 -0.470633  1.029884
H -2.828195  1.837456 -0.595586
H -2.338439  0.236436 -1.22539 
H -2.174349  2.266707 -2.839667
H -0.774621  2.790662 -1.858848
H  1.414805  0.752047 -3.279223
H  1.006588  1.35772  -1.652126
H -0.028852 -0.850884 -1.093059
H  0.32756  -1.437467 -2.740942
H  1.862677 -3.137633 -1.639955
H  3.20424  -2.435253 -0.693374
H  1.545319 -2.424171 -0.032641
