30

C  0.571921 -0.6667    4.145125
O -0.497077 -0.398307  3.242644
C -0.108228  0.279599  2.068324
C -1.374878  0.488062  1.242772
O -0.97877   1.144175  0.053131
C -1.97199  1.24183 -0.95347
C -1.343415  1.934436 -2.168671
O -0.555942  1.067366 -2.952527
C  0.707794  0.688857 -2.432533
C  0.669876 -0.757782 -1.932095
O  1.989847 -1.076394 -1.531548
C  2.137526 -2.350401 -0.948323
H 0.942616 0.341182 4.383954
H  0.150939 -1.157212  5.020704
H  1.352025 -1.283277  3.686573
H  0.617273 -0.312817  1.4883  
H 0.349683 1.253567 2.305732
H -2.098688  1.096528  1.806582
H -1.835666 -0.486541  1.020015
H -2.825407  1.839038 -0.593743
H -2.336957  0.243212 -1.237644
H -2.145201  2.292356 -2.825039
H -0.753391  2.796752 -1.822957
H  1.440026  0.76332  -3.24696 
H  1.019671  1.354561 -1.617624
H -0.026551 -0.853784 -1.086871
H  0.330103 -1.424653 -2.740252
H  1.847133 -3.148192 -1.646666
H  3.192867 -2.464488 -0.692377
H  1.532873 -2.444291 -0.034534
