30

C  1.366462 -0.23427   2.919629
O  0.334735 -0.186137  1.961758
C -0.892941  0.32861   2.444391
C -1.829925  0.581336  1.257023
O -1.105716  1.193684  0.211983
C -1.828096  1.39153  -0.989496
C -0.848357  1.907104 -2.057041
O -0.400577  0.878817 -2.91441 
C  0.808393  0.221595 -2.588324
C  0.648861 -0.771547 -1.431807
O  1.762158 -1.64743  -1.507212
C  1.802985 -2.612585 -0.4819  
H  1.112265 -0.905934  3.752464
H  2.253949 -0.615157  2.41102 
H 1.583294 0.764277 3.32461 
H -0.724398  1.259284  3.00671 
H -1.356874 -0.427092  3.100025
H -2.666466  1.218299  1.588293
H -2.246526 -0.379412  0.910096
H -2.632558  2.128346 -0.830726
H -2.282254  0.449307 -1.33194 
H -1.368163  2.635273 -2.692822
H -0.005117  2.410233 -1.563172
H  1.100244 -0.334154 -3.486646
H  1.599344  0.950407 -2.35453 
H  0.633461 -0.254392 -0.463868
H -0.294261 -1.328591 -1.551084
H  0.932709 -3.283302 -0.52761 
H  2.714111 -3.19738  -0.625779
H  1.829267 -2.140719  0.510382
