30

C  0.580961 -0.675279  4.11587 
O -0.483451 -0.392263  3.22988 
C -0.104304  0.3005    2.058668
C -1.37416   0.498794  1.235694
O -0.985447  1.159723  0.046383
C -1.978495  1.246529 -0.961331
C -1.350579  1.930639 -2.181696
O -0.557917  1.059564 -2.955921
C  0.703907  0.686812 -2.426942
C  0.666585 -0.758676 -1.923213
O  1.97971  -1.06584  -1.492572
C  2.126853 -2.341765 -0.91327 
H 1.033512 0.271869 4.442749
H  0.156245 -1.199118  4.973073
H  1.345936 -1.302736  3.639834
H  0.627509 -0.28      1.474699
H 0.342113 1.277412 2.302832
H -2.102688  1.099943  1.80128 
H -1.826373 -0.479721  1.01241 
H -2.833757  1.844374 -0.607041
H -2.340643  0.244687 -1.237616
H -2.152476  2.279129 -2.842951
H -0.764771  2.798516 -1.842804
H  1.441518  0.762227 -3.236434
H  1.008013  1.354946 -1.611176
H -0.04784  -0.857369 -1.093392
H  0.34981  -1.430789 -2.736348
H  1.862084 -3.138265 -1.62317 
H  3.176846 -2.446173 -0.632435
H  1.50131  -2.447671 -0.015036
