30

C  0.585244 -0.679602  4.103576
O -0.478942 -0.38837   3.225395
C -0.104421  0.308765  2.054415
C -1.378463  0.506701  1.236099
O -0.98962   1.167099  0.043947
C -1.982071  1.248957 -0.964578
C -1.353882  1.92931  -2.186961
O -0.559101  1.056397 -2.956966
C  0.701993  0.686343 -2.424322
C  0.664956 -0.758056 -1.917479
O  1.976068 -1.061243 -1.477984
C  2.123031 -2.336401 -0.896928
H 1.072344 0.238767 4.460234
H  0.158465 -1.213688  4.954676
H  1.340184 -1.315129  3.619427
H  0.627259 -0.268782  1.46755 
H 0.340036 1.286026 2.299896
H -2.085909  1.088875  1.78575 
H -1.824411 -0.47493   1.010813
H -2.838587  1.847002 -0.613563
H -2.342682  0.245619 -1.237601
H -2.155529  2.274115 -2.850443
H -0.769669  2.799312 -1.85077 
H  1.441454  0.760954 -3.232208
H  1.003389  1.356463 -1.609204
H -0.054417 -0.856341 -1.091889
H  0.354714 -1.432874 -2.730893
H  1.865342 -3.134073 -1.608118
H  3.171421 -2.437584 -0.609012
H  1.491816 -2.443633 -0.002839
