30

C  0.955199 -0.944056  3.633106
O -0.197078 -0.578983  2.905064
C 0.012771 0.429338 1.949175
C -1.444722  0.59171   1.134978
O -1.16625   1.400789  0.020463
C -2.071673  1.323307 -1.068156
C -1.376267  1.922862 -2.29747 
O -0.494623  1.019845 -2.928701
C  0.696496  0.6842   -2.23445 
C  0.619426 -0.763172 -1.737849
O  1.717984 -0.958471 -0.866341
C  1.839444 -2.268879 -0.358554
H  1.35819  -0.092106  4.19829 
H  0.656038 -1.728802  4.330615
H  1.740957 -1.331001  2.968943
H 0.774379 0.15266  1.209334
H 0.264753 1.393955 2.408627
H -2.177427  1.049864  1.810883
H -1.772662 -0.414851  0.846976
H -2.98734   1.895525 -0.847654
H -2.352364  0.279116 -1.26998 
H -2.133609  2.177585 -3.04766 
H -0.848788  2.840505 -1.996343
H  1.5374    0.787855 -2.932777
H  0.865776  1.353352 -1.382337
H -0.331155 -0.928888 -1.209114
H  0.664641 -1.459972 -2.58931 
H  2.005182 -2.996003 -1.165854
H  2.701818 -2.272923  0.311146
H  0.943512 -2.56436   0.204973
