30

C  0.598636 -0.68075   4.087374
O -0.468721 -0.396501  3.210836
C -0.103287  0.317229  2.047037
C -1.379493  0.505879  1.22822 
O -0.994437  1.17088   0.043526
C -1.983576  1.252333 -0.969201
C -1.350621  1.931945 -2.189455
O -0.5526    1.058652 -2.95565 
C  0.704827  0.686367 -2.415804
C  0.662995 -0.759291 -1.912959
O  1.969393 -1.063141 -1.46024 
C  2.111212 -2.34076  -0.883164
H 1.072193 0.241073 4.453277
H  0.178795 -1.228971  4.932926
H  1.363103 -1.300764  3.59807 
H  0.637061 -0.244016  1.455273
H 0.327074 1.298259 2.302485
H -2.117403  1.061564  1.826021
H -1.810258 -0.481718  0.996823
H -2.841175  1.850287 -0.621422
H -2.342692  0.248602 -1.242568
H -2.149583  2.276236 -2.856404
H -0.767877  2.802221 -1.851401
H  1.449756  0.762499 -3.218508
H  1.001314  1.354124 -1.596986
H -0.065148 -0.859892 -1.095346
H  0.361541 -1.432164 -2.731268
H  1.862818 -3.135506 -1.600894
H  3.156329 -2.441918 -0.583597
H  1.469837 -2.452758  0.00302 
