30

C  0.578791 -0.672354  4.108622
O -0.480516 -0.380748  3.228887
C -0.103901  0.312997  2.055918
C -1.374652  0.506055  1.233144
O -0.988095  1.164962  0.042056
C -1.981534  1.246515 -0.965735
C -1.354861  1.927056 -2.188732
O -0.560796  1.054327 -2.959641
C  0.701439  0.685313 -2.428999
C  0.666103 -0.758555 -1.920502
O  1.978976 -1.06156  -1.486206
C  2.127746 -2.335405 -0.902738
H 1.100509 0.214356 4.493581
H  0.143182 -1.210898  4.95375 
H  1.325166 -1.319945  3.624323
H  0.62934  -0.266733  1.472978
H 0.339584 1.291147 2.298506
H -2.104441  1.106752  1.797591
H -1.824514 -0.47415   1.012469
H -2.837658  1.844304 -0.613449
H -2.342144  0.243093 -1.238258
H -2.157371  2.271685 -2.851261
H -0.770474  2.797182 -1.853176
H  1.43927   0.759259 -3.238425
H  1.004164  1.356554 -1.615281
H -0.049793 -0.855891 -1.091776
H  0.352298 -1.43408  -2.731958
H  1.866149 -3.134627 -1.610748
H  3.1774   -2.436642 -0.61949 
H  1.500644 -2.439968 -0.005433
