30

C  0.50954  -0.51474   4.246992
O -0.536048 -0.267915  3.333549
C -0.115147  0.172183  2.058317
C -1.378155  0.406245  1.233294
O -0.974638  1.087845  0.060436
C -1.967349  1.222824 -0.942392
C -1.336042  1.951852 -2.134587
O -0.551706  1.107323 -2.94569 
C  0.715607  0.717282 -2.443699
C  0.682611 -0.740249 -1.975377
O  2.009366 -1.071469 -1.608852
C  2.163004 -2.353891 -1.046456
H 1.099457 0.393457 4.434247
H  0.046322 -0.841115  5.180067
H  1.181764 -1.303918  3.881677
H  0.52496  -0.579795  1.570189
H 0.450788 1.11416  2.133746
H -2.090149  1.013304  1.813905
H -1.856812 -0.553703  0.986975
H -2.81799   1.811812 -0.563156
H -2.336726  0.235633 -1.259013
H -2.136635  2.333468 -2.778989
H -0.742934  2.800509 -1.761559
H  1.441417  0.809824 -3.261988
H  1.033756  1.36503  -1.616733
H  0.003184 -0.853651 -1.118526
H  0.324623 -1.387582 -2.791511
H  1.851073 -3.140665 -1.748004
H  3.223357 -2.477634 -0.817142
H  1.579511 -2.456424 -0.119698
