30

C  0.966489 -0.682685  3.72693 
O -0.237413 -0.513939  3.013428
C -0.137092  0.332701  1.881646
C -1.488745  0.33847   1.15361 
O -1.11285   1.184658  0.068418
C -2.025554  1.293473 -1.011955
C -1.297803  1.99419  -2.166471
O -0.432229  1.135171 -2.876118
C  0.750525  0.719187 -2.212317
C  0.640441 -0.756279 -1.81285 
O  1.710478 -1.020396 -0.92384 
C  1.79895  -2.359352 -0.489567
H 1.338288 0.274917 4.118193
H  0.75206  -1.352309  4.562283
H  1.745851 -1.132004  3.094907
H  0.6355   -0.030114  1.188464
H 0.112961 1.3615   2.180941
H -2.292107  0.777942  1.757778
H -1.77599  -0.663519  0.811686
H -2.904941  1.888974 -0.71753 
H -2.367928  0.299233 -1.335331
H -2.038648  2.345114 -2.894036
H -0.74919   2.861378 -1.768657
H  1.591398  0.850264 -2.905913
H  0.939482  1.323719 -1.316925
H -0.326917 -0.941521 -1.323061
H  0.702672 -1.399263 -2.704665
H  1.975188 -3.04188  -1.332818
H  2.643    -2.415608  0.200739
H  0.884134 -2.672024  0.03305 
