30

C  0.585087 -0.677603  4.105306
O -0.477253 -0.390674  3.22464 
C -0.101898  0.307107  2.054256
C -1.372835  0.499961  1.231709
O -0.987201  1.163897  0.04313 
C -1.980509  1.247995 -0.964548
C -1.352869  1.93013  -2.186147
O -0.559092  1.05792  -2.957981
C  0.702124  0.686477 -2.426604
C  0.664611 -0.758532 -1.921529
O  1.974568 -1.061128 -1.478245
C  2.120959 -2.337148 -0.898898
H 1.066368 0.241592 4.468875
H  0.159428 -1.206819  4.960414
H  1.344036 -1.31129   3.625734
H  0.632896 -0.268727  1.469474
H 0.33924  1.285681 2.300233
H -2.104322  1.096922  1.797919
H -1.820227 -0.48055   1.007407
H -2.836275  1.845759 -0.611324
H -2.341816  0.245339 -1.238946
H -2.154683  2.276572 -2.848565
H -0.767858  2.799155 -1.848837
H  1.44118   0.761887 -3.234785
H  1.004324  1.355243 -1.610669
H -0.057308 -0.858242 -1.098308
H  0.357458 -1.432791 -2.736573
H  1.866623 -3.133848 -1.612375
H  3.168465 -2.437646 -0.607557
H  1.486789 -2.446641 -0.007188
