30

C -0.648475  0.203561  5.460044
O -1.158233 -0.10179   4.18124 
C -0.634662  0.685183  3.130633
C -1.312505  0.209471  1.849091
O -0.778405  0.986704  0.794184
C -1.290426  0.688861 -0.491078
C -0.590034  1.636917 -1.474849
O -0.650914  1.116933 -2.790328
C  0.534671  0.593211 -3.346567
C  0.891278 -0.781396 -2.767358
O  1.990242 -1.251999 -3.522639
C  2.473019 -2.520536 -3.140282
H -0.871251  1.242264  5.741942
H -1.135083 -0.472332  6.165807
H 0.439064 0.050673 5.504259
H 0.45605  0.557022 3.045186
H -0.847913  1.753716  3.291592
H -2.401964  0.347396  1.927952
H -1.106729 -0.860965  1.692577
H -2.381291  0.831423 -0.522668
H -1.073375 -0.356281 -0.762386
H -1.102172  2.607695 -1.481322
H  0.448359  1.788919 -1.151198
H  0.349338  0.48531  -4.420792
H  1.38005   1.282965 -3.202883
H  1.159431 -0.697542 -1.702306
H  0.028639 -1.460551 -2.858149
H  1.699828 -3.293483 -3.253027
H  3.312059 -2.75297  -3.798851
H  2.821414 -2.518381 -2.097803
