30

C  0.620062 -0.687854  4.061172
O -0.4531   -0.407515  3.190522
C -0.100524  0.326499  2.035338
C -1.382451  0.507072  1.220762
O -1.002177  1.181337  0.042214
C -1.987631  1.259    -0.974885
C -1.349653  1.93525  -2.19439 
O -0.546204  1.060478 -2.953271
C  0.706138  0.687256 -2.402143
C  0.658875 -0.759714 -1.903604
O  1.956145 -1.060176 -1.423369
C  2.091921 -2.341913 -0.853809
H 1.081332 0.235796 4.438027
H  0.209974 -1.252876  4.900444
H  1.392178 -1.29057   3.562341
H  0.647422 -0.215482  1.435383
H 0.315149 1.310685 2.30288 
H -2.127928  1.020592  1.845415
H -1.792635 -0.48786   0.978867
H -2.847184  1.857085 -0.632615
H -2.344402  0.253943 -1.24645 
H -2.145605  2.275897 -2.866756
H -0.770004  2.807628 -1.856405
H  1.459249  0.765947 -3.196945
H  0.994145  1.352577 -1.578411
H -0.086525 -0.864604 -1.102199
H  0.377319 -1.431857 -2.72956 
H  1.865762 -3.131838 -1.584095
H  3.13016  -2.43938  -0.530093
H  1.430203 -2.465406  0.015655
