30

C  0.376211 -0.669277  4.22552 
O -0.531673 -0.311829  3.204633
C 0.039409 0.343055 2.07668 
C -1.247961  0.533855  1.264387
O -0.91562   1.168319  0.041229
C -1.954558  1.227162 -0.921039
C -1.392326  1.896868 -2.180692
O -0.631291  1.019844 -2.979718
C  0.659841  0.668755 -2.510725
C  0.662435 -0.762985 -1.967634
O  2.007056 -1.06438  -1.642471
C  2.198849 -2.320823 -1.034864
H 0.87849  0.214886 4.641806
H -0.204561 -1.155369  5.011942
H  1.138888 -1.36854   3.855452
H  0.763797 -0.295099  1.553941
H 0.505586 1.298864 2.347658
H -1.953813  1.14567   1.844916
H -1.70036  -0.451888  1.083087
H -2.79949   1.821909 -0.53773 
H -2.317861  0.216922 -1.163527
H -2.228143  2.2294   -2.807305
H -0.797613  2.774066 -1.883908
H  1.350827  0.725634 -3.361791
H  1.00356   1.361505 -1.731916
H  0.021488 -0.838229 -1.077626
H  0.276737 -1.453999 -2.733807
H  1.869793 -3.13911  -1.691107
H  3.268868 -2.423337 -0.842941
H  1.653444 -2.391851 -0.082428
