30

C  0.547944 -0.641057  4.153382
O -0.49496  -0.380083  3.241333
C -0.092508  0.278475  2.054272
C -1.36007   0.482057  1.232733
O -0.97596   1.147935  0.044505
C -1.974665  1.243126 -0.956838
C -1.352203  1.932715 -2.176867
O -0.565211  1.064328 -2.959768
C  0.700266  0.689494 -2.44118 
C  0.665886 -0.75688  -1.939789
O  1.983439 -1.067378 -1.525346
C  2.134589 -2.343869 -0.948395
H 1.025946 0.289088 4.491535
H  0.101423 -1.147818  5.011055
H  1.31477  -1.290978  3.708469
H  0.664948 -0.318132  1.523499
H 0.354845 1.259114 2.286182
H -2.080174  1.083638  1.8079  
H -1.819917 -0.492347  1.006284
H -2.826395  1.840969 -0.594137
H -2.340806  0.243764 -1.236831
H -2.15711   2.286007 -2.831905
H -0.763094  2.7978   -1.83659 
H  1.431617  0.76573  -3.25626 
H  1.01124   1.355953 -1.626609
H -0.038854 -0.85588  -1.101741
H  0.338309 -1.426734 -2.750504
H  1.859088 -3.139448 -1.655238
H  3.187709 -2.450985 -0.6806  
H  1.519917 -2.448605 -0.042528
