30

C  0.596761 -0.714192  4.113261
O -0.479078 -0.431781  3.254599
C -0.076666  0.351763  2.021658
C -1.353743  0.521111  1.217764
O -0.987312  1.195285  0.028268
C -1.984687  1.257383 -0.977392
C -1.36428   1.926159 -2.210075
O -0.564249  1.048582 -2.969224
C  0.694219  0.684157 -2.426149
C  0.65608  -0.759094 -1.916046
O  1.955982 -1.049009 -1.436663
C  2.104046 -2.331911 -0.872602
H 1.067896 0.204096 4.492522
H  0.186181 -1.276088  4.955694
H  1.364578 -1.325392  3.616952
H  0.670724 -0.222949  1.46571 
H 0.339069 1.314693 2.333444
H -2.091801  1.103164  1.790448
H -1.783896 -0.466715  0.992946
H -2.843871  1.853537 -0.630034
H -2.338818  0.248184 -1.236361
H -2.16948   2.255883 -2.876799
H -0.785941  2.804861 -1.886582
H  1.440203  0.759417 -3.227953
H  0.986874  1.356737 -1.61002 
H -0.086879 -0.86168  -1.111929
H  0.375983 -1.439175 -2.73595 
H  1.885997 -3.120649 -1.606579
H  3.143023 -2.420547 -0.548787
H  1.443094 -2.465831 -0.004101
