30

C  0.576199 -0.667883  4.119843
O -0.480652 -0.384888  3.229645
C -0.098867  0.301592  2.056938
C -1.370708  0.496447  1.234254
O -0.985047  1.160135  0.045575
C -1.978768  1.245143 -0.961597
C -1.352401  1.929899 -2.182398
O -0.558653  1.059803 -2.956662
C  0.702883  0.687307 -2.426767
C  0.665876 -0.759071 -1.925576
O  1.977374 -1.064532 -1.488849
C  2.124694 -2.342416 -0.913887
H 1.061624 0.253961 4.469747
H  0.141579 -1.191416  4.973504
H  1.333953 -1.31      3.649296
H  0.635912 -0.259589  1.458745
H 0.339986 1.282665 2.300408
H -2.101527  1.093846  1.800781
H -1.8189   -0.483748  1.010002
H -2.83478   1.841746 -0.607015
H -2.339536  0.242693 -1.237487
H -2.155012  2.276998 -2.843505
H -0.767775  2.798739 -1.84393 
H  1.441542  0.764819 -3.235108
H  1.00533   1.354174 -1.609375
H -0.05255  -0.860394 -1.099513
H  0.354377 -1.430496 -2.741312
H  1.866361 -3.136712 -1.628612
H  3.17331  -2.445034 -0.627313
H  1.494187 -2.453787 -0.019811
