30

C 0.577099 0.519716 4.071118
O -0.505638  0.530774  3.16927 
C -0.503598 -0.520045  2.224857
C -1.588504 -0.231839  1.189436
O -1.04514   0.654102  0.228304
C -1.931985  1.065654 -0.796099
C -1.188157  2.071942 -1.682316
O -0.31902  1.457   -2.60614
C  0.88676   0.910526 -2.098545
C  0.803705 -0.617993 -2.052791
O  2.100844 -1.079881 -1.722562
C  2.221436 -2.47977  -1.625732
H 1.537691 0.598494 3.543092
H 0.454532 1.385417 4.724748
H  0.583134 -0.395022  4.681395
H -0.715316 -1.483168  2.719999
H  0.470605 -0.600928  1.718761
H -2.459361  0.222201  1.686174
H -1.905485 -1.172628  0.710497
H -2.820826  1.550687 -0.361197
H -2.261274  0.204695 -1.398394
H -1.920911  2.62754  -2.279143
H -0.641913  2.777932 -1.038861
H  1.696542  1.197902 -2.781749
H  1.113397  1.302972 -1.09911 
H  0.071611 -0.944359 -1.299908
H  0.487171 -1.001148 -3.035887
H  1.975769 -2.970834 -2.578258
H  3.260974 -2.694445 -1.369606
H  1.565868 -2.885493 -0.841332
