30

C  0.562555 -0.653572  4.104077
O -0.483902 -0.345288  3.201736
C -0.131032  0.259791  2.088507
C -1.396877  0.492969  1.25108 
O -0.987792  1.131374  0.056829
C -1.977055  1.235965 -0.952625
C -1.342987  1.929066 -2.164682
O -0.558613  1.060704 -2.950207
C  0.708937  0.686368 -2.43694 
C  0.676247 -0.75504  -1.921248
O  2.00465  -1.076162 -1.551069
C  2.155803 -2.33001  -0.926987
H 1.077928 0.259385 4.43182 
H  0.111765 -1.146942  4.966086
H  1.294814 -1.326638  3.637526
H  0.576984 -0.335813  1.471919
H 0.354422 1.244882 2.258301
H -2.107625  1.120901  1.810596
H -1.87909  -0.473295  1.036373
H -2.828979  1.83621  -0.594268
H -2.345784  0.239668 -1.240358
H -2.142268  2.292923 -2.820955
H -0.749351  2.787515 -1.8156  
H  1.433855  0.752035 -3.25863 
H  1.028168  1.360615 -1.631825
H  0.001449 -0.839    -1.057603
H  0.313081 -1.428275 -2.713823
H  1.832264 -3.148763 -1.585418
H  3.217584 -2.449343 -0.701784
H  1.580858 -2.382229  0.009192
