30

C  0.492919 -0.728561  4.182739
O -0.523206 -0.512229  3.223262
C -0.143374  0.20878   2.069495
C -1.406299  0.380883  1.2295  
O -1.023735  1.087152  0.064535
C -2.008316  1.171712 -0.951856
C -1.399124  1.933817 -2.134889
O -0.564213  1.131197 -2.937899
C  0.711058  0.79535  -2.416878
C  0.73615  -0.665992 -1.960247
O  2.068703 -0.938418 -1.567466
C  2.271247 -2.220548 -1.019561
H  0.919528 -1.734674  4.07512 
H 1.292487 0.016331 4.099926
H  0.0386   -0.649494  5.175373
H  0.614407 -0.338157  1.486106
H 0.266171 1.195634 2.33484 
H -2.165523  0.939611  1.798248
H -1.81821  -0.607284  0.97338 
H -2.893351  1.715539 -0.584032
H -2.321887  0.167103 -1.273725
H -2.209454  2.2772   -2.78854 
H -0.85325   2.809733 -1.752754
H  1.44579   0.927691 -3.22163 
H  0.98504   1.450028 -1.579672
H  0.044472 -0.818053 -1.119339
H  0.426152 -1.322185 -2.788862
H  2.016308 -3.010461 -1.740344
H  3.330368 -2.295733 -0.764883
H  1.670552 -2.365973 -0.109927
