30

C  0.582111 -0.669324  4.10064 
O -0.476026 -0.385103  3.213136
C -0.095916  0.313212  2.044899
C -1.363856  0.504978  1.211543
O -0.99227   1.151861  0.052443
C -1.983207  1.243427 -0.959845
C -1.35323   1.930215 -2.177032
O -0.557194  1.061403 -2.950168
C  0.702642  0.687711 -2.416792
C  0.664308 -0.760462 -1.921029
O  1.97208  -1.063831 -1.472206
C  2.117    -2.343012 -0.899265
H 1.060863 0.252156 4.460686
H  0.151264 -1.205153  4.948618
H  1.344991 -1.300878  3.623701
H  0.643519 -0.260917  1.464113
H 0.341929 1.292821 2.293127
H -2.099734  1.09017   1.790664
H -1.808241 -0.484088  1.003329
H -2.838291  1.839886 -0.603368
H -2.344434  0.241653 -1.237024
H -2.153793  2.27858  -2.839925
H -0.769617  2.798397 -1.835087
H  1.444559  0.768932 -3.221768
H  1.00131   1.351569 -1.59558 
H -0.062183 -0.866299 -1.102588
H  0.362606 -1.42996  -2.742001
H  1.868181 -3.135932 -1.618846
H  3.162919 -2.443505 -0.602316
H  1.477718 -2.458505 -0.012038
