30

C  0.927791 -0.918217  3.660698
O -0.22391  -0.56134   2.928698
C -0.008352  0.420499  1.942451
C -1.414753  0.570334  1.142854
O -1.136777  1.380561  0.02487 
C -2.058928  1.323315 -1.050024
C -1.375469  1.92694  -2.283867
O -0.503351  1.024811 -2.929594
C  0.694743  0.683075 -2.250296
C  0.618469 -0.764274 -1.752927
O  1.717439 -0.958509 -0.881579
C  1.85015  -2.272451 -0.386023
H  1.344018 -0.055007  4.198669
H  0.623975 -1.678716  4.382649
H  1.705384 -1.333553  3.003984
H 0.762344 0.116888 1.221183
H 0.260016 1.391234 2.38178 
H -2.163234  1.026346  1.804668
H -1.745879 -0.434337  0.847819
H -2.965203  1.903396 -0.811315
H -2.354149  0.284124 -1.257412
H -2.140756  2.187594 -3.023907
H -0.842051  2.841668 -1.984265
H  1.527043  0.783591 -2.959335
H  0.877819  1.351201 -1.400277
H -0.33188  -0.930576 -1.224099
H  0.664071 -1.461648 -2.603921
H  2.024747 -2.990275 -1.199755
H  2.710914 -2.274758  0.285747
H  0.95578  -2.581914  0.172547
