30

C  0.571695 -0.668638  4.123459
O -0.483924 -0.380204  3.234201
C -0.095099  0.310994  2.060552
C -1.368317  0.502878  1.236676
O -0.981016  1.159705  0.044543
C -1.976304  1.244666 -0.961193
C -1.351802  1.928164 -2.183626
O -0.561121  1.056751 -2.959454
C  0.70258   0.685305 -2.434193
C  0.667276 -0.758867 -1.926553
O  1.983516 -1.066918 -1.506174
C  2.133327 -2.340938 -0.923434
H 1.057727 0.250602 4.479433
H  0.136004 -1.19681   4.973764
H  1.32958  -1.30882   3.650093
H  0.613057 -0.297562  1.479665
H 0.318265 1.296325 2.318884
H -2.09784   1.105031  1.799826
H -1.818543 -0.477416  1.017389
H -2.831288  1.842106 -0.605569
H -2.338182  0.242229 -1.235657
H -2.155543  2.276126 -2.842925
H -0.765219  2.796335 -1.846832
H  1.437079  0.758405 -3.246717
H  1.009813  1.355721 -1.621449
H -0.040294 -0.854572 -1.090513
H  0.342758 -1.432402 -2.735444
H  1.860683 -3.139576 -1.627926
H  3.185566 -2.446381 -0.651541
H  1.515572 -2.442239 -0.019267
