30

C  0.685564 -0.663639  4.040357
O -0.452976 -0.421895  3.246044
C -0.185011  0.276827  2.050694
C -1.446877  0.479329  1.220248
O -1.025703  1.152146  0.049664
C -1.9914    1.253141 -0.983119
C -1.327956  1.946633 -2.17922 
O -0.516686  1.080269 -2.939171
C  0.727802  0.696813 -2.377492
C  0.671168 -0.755201 -1.894833
O  1.965566 -1.067287 -1.414166
C  2.090456 -2.350995 -0.846702
H 1.162878 0.276126 4.352067
H  0.346602 -1.20556   4.92525 
H  1.425194 -1.274221  3.503055
H  0.545519 -0.278871  1.437871
H 0.252136 1.265338 2.272331
H -2.186636  1.078153  1.774411
H -1.900159 -0.493471  0.973106
H -2.853391  1.850995 -0.645694
H -2.3498    0.255592 -1.278982
H -2.110283  2.30372  -2.859046
H -0.749317  2.809487 -1.816067
H  1.49006   0.781422 -3.162878
H  1.008427  1.352639 -1.54358 
H -0.076993 -0.864763 -1.096672
H  0.388725 -1.416936 -2.728856
H  1.856875 -3.137885 -1.577921
H  3.127997 -2.458053 -0.523771
H  1.428231 -2.469853  0.023092
