30

C 0.482755 0.447617 4.232613
O -0.572182  0.443852  3.298011
C -0.39584  -0.438114  2.206285
C -1.514037 -0.169123  1.197638
O -1.000866  0.704206  0.207493
C -1.915034  1.086575 -0.804642
C -1.194611  2.063157 -1.741903
O -0.352917  1.41788  -2.670462
C  0.86388   0.880499 -2.179806
C  0.776583 -0.645828 -2.090786
O  2.075724 -1.102672 -1.761872
C  2.193858 -2.500084 -1.630661
H 1.430886 0.746142 3.763869
H 0.220076 1.172775 5.005192
H  0.613203 -0.54124   4.695413
H -0.439823 -1.48511   2.549679
H  0.577937 -0.272576  1.721052
H -2.370659  0.289661  1.713681
H -1.846053 -1.113625  0.73684 
H -2.79094   1.586548 -0.360611
H -2.261772  0.208154 -1.370694
H -1.942859  2.601994 -2.334823
H -0.629253  2.787387 -1.136269
H  1.656919  1.146659 -2.890681
H  1.117484  1.298072 -1.197155
H  0.051678 -0.94824  -1.3211  
H  0.447825 -1.055354 -3.059093
H  1.937653 -3.01439  -2.567986
H  3.235345 -2.710883 -1.379345
H  1.545048 -2.88394  -0.829859
