30

C  0.580742 -0.663755  4.098083
O -0.47468  -0.382064  3.206662
C -0.092243  0.317536  2.040057
C -1.35856   0.507378  1.200116
O -0.995486  1.145279  0.058315
C -1.984907  1.241114 -0.956863
C -1.353278  1.930665 -2.171329
O -0.556062  1.063898 -2.945502
C  0.702887  0.68822  -2.411176
C  0.664349 -0.762627 -1.923283
O  1.969799 -1.065606 -1.467673
C  2.113754 -2.347461 -0.900328
H 1.055788 0.258857 4.460202
H  0.148155 -1.200927  4.944344
H  1.347125 -1.293208  3.62394 
H  0.650758 -0.254442  1.461612
H 0.342376 1.298175 2.290107
H -2.09786   1.084594  1.786882
H -1.799827 -0.487258  1.000872
H -2.839643  1.836717 -0.598495
H -2.345949  0.239821 -1.235669
H -2.152969  2.280518 -2.834475
H -0.770339  2.798153 -1.826454
H  1.44667  0.77439 -3.21389
H  0.999124  1.347836 -1.585685
H -0.067167 -0.874171 -1.110126
H  0.36919  -1.428463 -2.74959 
H  1.871672 -3.137166 -1.625705
H  3.157863 -2.447069 -0.596814
H  1.468728 -2.468937 -0.018114
