30

C  0.586139 -0.682758  4.098629
O -0.484736 -0.393402  3.227955
C -0.122333  0.295818  2.054566
C -1.386926  0.502238  1.233034
O -0.995135  1.161826  0.044193
C -1.985075  1.247196 -0.966674
C -1.353149  1.929434 -2.186035
O -0.557241  1.057346 -2.955725
C  0.703386  0.687246 -2.421967
C  0.666301 -0.757034 -1.914753
O  1.978457 -1.061229 -1.479034
C  2.124311 -2.333053 -0.890438
H 1.077473 0.236481 4.447025
H  0.165665 -1.212688  4.955383
H  1.33602  -1.321149  3.610466
H  0.648095 -0.240205  1.470496
H 0.383879 1.255238 2.265367
H -2.112206  1.106823  1.799335
H -1.844933 -0.473586  1.009274
H -2.841443  1.84556  -0.615989
H -2.346273  0.244927 -1.242653
H -2.152898  2.276281 -2.850744
H -0.769039  2.798242 -1.846618
H  1.443418  0.76156  -3.229342
H  1.004173  1.357738 -1.606906
H -0.050601 -0.854585 -1.086977
H  0.353057 -1.431664 -2.727174
H  1.860985 -3.134561 -1.595219
H  3.173716 -2.435511 -0.606694
H  1.496921 -2.432528  0.007237
