30

C  0.271679 -0.732258  4.36736 
O -0.699836 -0.493223  3.373467
C -0.246539  0.266327  2.271991
C -1.434352  0.420544  1.326411
O -0.963472  1.135953  0.199943
C -1.868215  1.227567 -0.887908
C -1.141257  1.914977 -2.056424
O -0.74444   0.995317 -3.053089
C  0.570423  0.483664 -2.99134 
C  0.738128 -0.572634 -1.893145
O  1.994074 -1.185076 -2.122892
C  2.344942 -2.171349 -1.179543
H 0.641109 0.208148 4.799794
H -0.211614 -1.321698  5.148776
H  1.125204 -1.295825  3.964857
H  0.577138 -0.246406  1.748775
H 0.110036 1.257609 2.593194
H -2.249532  0.964708  1.827406
H -1.805611 -0.573703  1.033682
H -2.758994  1.807321 -0.598956
H -2.198922  0.225829 -1.201613
H -1.82231   2.628648 -2.536632
H -0.277759  2.472068 -1.665996
H  0.760599  0.013229 -3.96235 
H  1.301718  1.292818 -2.843308
H  0.714365 -0.108448 -0.89692 
H -0.077673 -1.310271 -1.957752
H  1.627146 -3.003946 -1.184311
H  3.331281 -2.546034 -1.460233
H  2.392697 -1.753854 -0.163224
