30

C 0.777368 0.469321 3.791544
O -0.350573  0.571864  2.953712
C -0.652932 -0.593295  2.219515
C -1.711543 -0.253516  1.173456
O -1.134252  0.63413   0.236158
C -1.984025  1.052195 -0.81576 
C -1.215392  2.078688 -1.656649
O -0.300247  1.485842 -2.549771
C  0.895791  0.959481 -1.999417
C  0.839979 -0.57049  -1.95849 
O  2.141766 -1.009453 -1.614715
C  2.280203 -2.405547 -1.493466
H 1.683291 0.235637 3.214913
H 0.90077  1.439339 4.276751
H  0.638854 -0.303939  4.561175
H -1.056211 -1.377423  2.884791
H  0.237295 -1.008747  1.72101 
H -2.577342  0.218284  1.664333
H -2.047113 -1.181024  0.681445
H -2.89422   1.522703 -0.409713
H -2.280765  0.197358 -1.443347
H -1.929027  2.633535 -2.276991
H -0.705732  2.78225  -0.981398
H  1.724009  1.26225  -2.653232
H  1.079218  1.354892 -0.992316
H  0.105942 -0.912808 -1.214798
H  0.542006 -0.956541 -2.946308
H  2.044972 -2.91637  -2.438267
H  3.321324 -2.602342 -1.229422
H  1.626595 -2.806273 -0.704722
