30

C  0.581704 -0.674096  4.108585
O -0.483759 -0.386384  3.230762
C -0.110681  0.304522  2.055553
C -1.387782  0.499408  1.237988
O -0.992948  1.159027  0.045596
C -1.983223  1.243958 -0.964855
C -1.352785  1.928731 -2.183618
O -0.557066  1.05855  -2.955729
C  0.703803  0.687397 -2.423439
C  0.666799 -0.757866 -1.919042
O  1.97988  -1.064428 -1.487848
C  2.127039 -2.339528 -0.906765
H 1.070244 0.245649 4.459681
H  0.155946 -1.203438  4.963158
H  1.33524  -1.312767  3.626386
H  0.618471 -0.277472  1.469889
H 0.336106 1.282048 2.295212
H -2.086306  1.130943  1.804156
H -1.806897 -0.487932  0.999893
H -2.840486  1.840731 -0.613515
H -2.34312   0.24157  -1.242242
H -2.153281  2.276327 -2.847047
H -0.76885   2.797264 -1.84318 
H  1.443314  0.763037 -3.231174
H  1.005215  1.356366 -1.60735 
H -0.047827 -0.85644  -1.089369
H  0.35046  -1.430418 -2.731986
H  1.862274 -3.137042 -1.61553 
H  3.177031 -2.443532 -0.625777
H  1.501497 -2.444183 -0.008372
