30

C  0.534672 -0.740722  4.128535
O -0.515617 -0.410721  3.24263 
C -0.136428  0.290894  2.076751
C -1.400114  0.454753  1.236387
O -1.013657  1.128107  0.053347
C -2.00111   1.201394 -0.961062
C -1.384683  1.922323 -2.165944
O -0.564058  1.086057 -2.949203
C  0.706495  0.743291 -2.42117 
C  0.709159 -0.707007 -1.929955
O  2.036504 -0.989461 -1.526666
C  2.220316 -2.264053 -0.955193
H  1.480016 -0.889491  3.591777
H 0.683252 0.055487 4.87154 
H  0.258647 -1.663897  4.64373 
H  0.616673 -0.272883  1.504047
H 0.280594 1.280535 2.321015
H -2.152494  1.034816  1.792622
H -1.822111 -0.535568  1.006   
H -2.876017  1.76856  -0.604416
H -2.331684  0.193736 -1.255224
H -2.191875  2.259825 -2.82648 
H -0.824798  2.800062 -1.809111
H  1.442521  0.84512  -3.229186
H  0.991269  1.413284 -1.599878
H  0.012962 -0.829063 -1.087868
H  0.391906 -1.378115 -2.743739
H  1.957562 -3.063361 -1.662692
H  3.277469 -2.348485 -0.695265
H  1.614639 -2.385417 -0.045309
