30

C  0.508398 -0.729641  4.161583
O -0.521266 -0.504172  3.221585
C -0.143403  0.218805  2.067953
C -1.406588  0.392592  1.22904 
O -1.023634  1.096634  0.062843
C -2.007649  1.179635 -0.954183
C -1.39533   1.933792 -2.140698
O -0.562055  1.124523 -2.938764
C  0.711178  0.78651  -2.4141  
C  0.73059  -0.673444 -1.952798
O  2.059906 -0.947073 -1.550041
C  2.256587 -2.228206 -0.997659
H  1.073748 -1.639904  3.918256
H 1.196593 0.122718 4.217547
H  0.033077 -0.866499  5.136708
H  0.61434  -0.327574  1.483991
H 0.267426 1.204554 2.335884
H -2.164342  0.953466  1.797641
H -1.820583 -0.595114  0.97444 
H -2.890953  1.728281 -0.589342
H -2.324571  0.174565 -1.271295
H -2.204098  2.276075 -2.796846
H -0.84722  2.81011 -1.76271
H  1.448074  0.914223 -3.217628
H  0.985361  1.442791 -1.578241
H  0.032846 -0.821466 -1.116187
H  0.424995 -1.331791 -2.781338
H  2.005035 -3.019447 -1.718171
H  3.313872 -2.304585 -0.735811
H  1.649677 -2.370359 -0.091641
