30

C  0.565363 -0.657714  4.136058
O -0.487999 -0.383674  3.239579
C -0.101206  0.301714  2.066004
C -1.359144  0.485545  1.227114
O -0.977408  1.14787   0.045184
C -1.973478  1.240835 -0.959712
C -1.348686  1.929103 -2.179111
O -0.560111  1.059987 -2.9596  
C  0.704251  0.685241 -2.438113
C  0.669249 -0.761425 -1.93752 
O  1.985184 -1.070396 -1.517008
C  2.134805 -2.345972 -0.93754 
H 1.042086 0.267854 4.4881  
H  0.129587 -1.183734  4.9876  
H  1.330731 -1.294736  3.670591
H  0.638139 -0.281792  1.493798
H 0.33997  1.281722 2.30553 
H -2.155028  1.135652  1.836478
H -1.823065 -0.488017  1.014202
H -2.825574  1.838623 -0.598082
H -2.338494  0.240932 -1.238501
H -2.152401  2.281525 -2.836045
H -0.760423  2.794677 -1.83862 
H  1.437525  0.762133 -3.251371
H  1.013081  1.351479 -1.622534
H -0.039257 -0.861695 -1.102819
H  0.346194 -1.43135  -2.749985
H  1.862965 -3.142769 -1.64441 
H  3.186843 -2.451851 -0.665066
H  1.516309 -2.449769 -0.034182
