30

C  0.587361 -0.652064  4.127084
O -0.484613 -0.3706    3.238575
C -0.103277  0.312381  2.062356
C -1.373239  0.508532  1.238831
O -0.98411   1.160508  0.044613
C -1.978878  1.243715 -0.9617  
C -1.354133  1.925758 -2.184822
O -0.563078  1.053558 -2.959371
C  0.701542  0.684804 -2.434459
C  0.668318 -0.757486 -1.921341
O  1.986964 -1.064785 -1.507845
C  2.137954 -2.333556 -0.914094
H 1.032749 0.161572 4.423204
H  0.144383 -1.179511  4.97699 
H  1.312295 -1.32965   3.648085
H  0.625441 -0.276142  1.482084
H 0.346937 1.28993  2.296253
H -2.099658  1.115451  1.800957
H -1.828252 -0.470254  1.022601
H -2.834266  1.841359 -0.607379
H -2.340264  0.24076  -1.234964
H -2.157795  2.272767 -2.844734
H -0.76781   2.794472 -1.848972
H  1.434748  0.755269 -3.248379
H  1.00951   1.358628 -1.624788
H -0.034089 -0.849771 -1.080642
H  0.338538 -1.433716 -2.725849
H  1.858032 -3.138226 -1.608808
H  3.191941 -2.439137 -0.649078
H  1.526759 -2.424565 -0.004389
