30

C  0.037097 -0.497029  4.71869 
O -0.81688  -0.429628  3.598468
C -0.341043  0.372905  2.537305
C -1.404086  0.327286  1.443608
O -0.909083  1.098638  0.365332
C -1.701734  1.080141 -0.808091
C -0.952811  1.885476 -1.887063
O -0.752852  1.122043 -3.059374
C  0.506183  0.499371 -3.205003
C  0.738982 -0.607734 -2.169743
O  1.970677 -1.212656 -2.515074
C  2.38218  -2.246003 -1.648838
H 0.197162 0.496761 5.159883
H -0.451365 -1.141287  5.452173
H  1.012903 -0.927175  4.45252 
H  0.612319 -0.014615  2.143667
H -0.184884  1.412553  2.86556 
H -2.352263  0.739653  1.821342
H -1.574989 -0.715722  1.134937
H -2.701696  1.501976 -0.62148 
H -1.843693  0.046204 -1.159606
H -1.526213  2.77978  -2.159966
H  0.007641  2.222543 -1.471482
H  0.516314  0.058985 -4.207501
H  1.320044  1.237589 -3.135511
H  0.78589  -0.186429 -1.153449
H -0.083419 -1.340121 -2.208499
H  1.657056 -3.07201  -1.638178
H  3.339546 -2.613474 -2.023365
H  2.513026 -1.878022 -0.621244
