30

C  0.304218 -1.012454  4.016241
O -0.523411 -0.125065  3.298322
C -0.39118  -0.19971   1.893074
C -1.342469  0.839257  1.306325
O -1.220695  0.751211 -0.098735
C -1.934028  1.732027 -0.822395
C -1.707291  1.547856 -2.351487
O -0.888198  0.464367 -2.697714
C  0.48957   0.550359 -2.365589
C  0.911931 -0.810826 -1.814939
O  2.266953 -0.692656 -1.422146
C  2.811508 -1.850277 -0.832931
H  1.367362 -0.819372  3.814714
H  0.103815 -0.847207  5.076562
H  0.081593 -2.059159  3.765067
H -0.658975 -1.201985  1.522806
H 0.641293 0.022629 1.580861
H -1.064441  1.842811  1.664858
H -2.374507  0.62803   1.6273  
H -1.604049  2.739679 -0.518832
H -3.011744  1.654878 -0.601904
H -2.673397  1.352645 -2.83193 
H -1.306978  2.489067 -2.765011
H  1.075976  0.791976 -3.264776
H  0.676697  1.321615 -1.609135
H  0.272664 -1.070827 -0.95813 
H  0.791449 -1.586108 -2.587673
H  2.784519 -2.704101 -1.525003
H  3.8502   -1.624241 -0.583093
H  2.271626 -2.12442   0.085314
