30

C -1.755127  0.572531  5.634187
O -1.187428  0.01436   4.470391
C -1.068326  0.90813   3.381838
C -0.451945  0.116486  2.232308
O -0.319182  1.013363  1.146733
C  0.2139    0.449537 -0.03792 
C  0.21242   1.55532  -1.111051
O -0.445883  1.151596 -2.293666
C  0.339612  0.602574 -3.327449
C  0.709194 -0.861988 -3.060931
O  1.351705 -1.324761 -4.231818
C  1.73681  -2.681112 -4.202281
H -2.775955  0.934489  5.447333
H -1.786896 -0.220164  6.384129
H -1.148585  1.406295  6.015051
H -0.419205  1.760255  3.638325
H -2.052919  1.298768  3.080371
H -1.105788 -0.728934  1.967225
H  0.528268 -0.282968  2.536635
H -0.416484 -0.38742  -0.376734
H 1.231245 0.066531 0.141936
H -0.331877  2.41877  -0.711022
H  1.240801  1.877919 -1.333272
H -0.267442  0.650811 -4.238068
H  1.256957  1.190465 -3.484569
H  1.381499 -0.942114 -2.191254
H -0.201847 -1.444663 -2.8514  
H  0.867361 -3.34079  -4.073153
H  2.212661 -2.896989 -5.16071 
H  2.452467 -2.876296 -3.391144
