30

C  0.344391 -0.622934  4.31941 
O -0.61972  -0.332888  3.33189 
C -0.112     0.309932  2.180052
C -1.296932  0.529248  1.242174
O -0.79279   1.150559  0.065965
C -1.873972  1.232259 -0.85999 
C -1.36332   1.894241 -2.146658
O -0.654594  1.004948 -2.979188
C  0.657954  0.645924 -2.580612
C  0.67961  -0.774691 -2.008999
O  2.042019 -1.101143 -1.804877
C  2.261998 -2.335601 -1.162877
H 0.824617 0.293235 4.690695
H -0.180421 -1.112246  5.142108
H  1.121198 -1.298008  3.933518
H  0.644963 -0.315347  1.680029
H 0.349234 1.276479 2.43674 
H -2.048379  1.169313  1.727571
H -1.759733 -0.439087  1.002543
H -2.687545  1.83987  -0.435272
H -2.260741  0.228419 -1.086398
H -2.223332  2.238384 -2.733119
H -0.742557  2.763304 -1.880945
H  1.295638  0.675932 -3.473507
H  1.056726  1.351179 -1.840067
H  0.124482 -0.818543 -1.061151
H  0.208943 -1.47061  -2.721436
H  1.852483 -3.171608 -1.747659
H  3.342817 -2.459265 -1.069129
H  1.808973 -2.351255 -0.160792
