30

C  0.879042 -0.834923  3.726878
O -0.262029 -0.546576  2.951132
C -0.04626   0.388055  1.911402
C -1.36683   0.508937  1.146634
O -1.092833  1.33471   0.038238
C -2.036941  1.324474 -1.018756
C -1.36412   1.948308 -2.248429
O -0.508186  1.052397 -2.923543
C  0.698325  0.692157 -2.2692  
C  0.621555 -0.762794 -1.794064
O  1.717677 -0.969491 -0.921985
C  1.850252 -2.290687 -0.446166
H 1.263308 0.066439 4.224899
H  0.575603 -1.561175  4.483561
H  1.68117  -1.267686  3.112095
H 0.745439 0.044889 1.227974
H 0.245247 1.369711 2.316994
H -2.145642  0.85467   1.841795
H -1.667214 -0.497524  0.808481
H -2.927417  1.914173 -0.747578
H -2.354425  0.296283 -1.24802 
H -2.136445  2.231073 -2.972872
H -0.818701  2.851814 -1.936552
H  1.519996  0.800814 -2.989283
H  0.898297  1.344427 -1.410695
H -0.330519 -0.936749 -1.270814
H  0.669993 -1.448052 -2.654685
H  2.022245 -2.996557 -1.270847
H  2.7125   -2.30351   0.223521
H  0.956923 -2.607608  0.109907
