30

C  0.590007 -0.691624  4.090519
O -0.482279 -0.39083   3.226874
C -0.113708  0.319184  2.05665 
C -1.381465  0.515493  1.23408 
O -0.991     1.169197  0.041307
C -1.98317   1.250458 -0.967807
C -1.353822  1.926729 -2.191805
O -0.56062   1.050594 -2.959679
C  0.701961  0.68327  -2.428721
C  0.666799 -0.758082 -1.913091
O  1.981358 -1.060871 -1.483714
C  2.130019 -2.329828 -0.889718
H 1.077901 0.222277 4.457461
H  0.172643 -1.240492  4.936892
H  1.342758 -1.31725   3.589643
H  0.614355 -0.296411  1.503317
H 0.341422 1.289937 2.301985
H -2.107976  1.122024  1.796653
H -1.83682  -0.462688  1.016042
H -2.838406  1.850884 -0.617879
H -2.345522  0.247118 -1.238285
H -2.155061  2.271171 -2.855981
H -0.7682    2.796634 -1.857849
H  1.438742  0.752764 -3.239487
H  1.006144  1.35842  -1.618754
H -0.045136 -0.850368 -1.080429
H  0.348118 -1.437043 -2.719764
H  1.86132  -3.134642 -1.58867 
H  3.181177 -2.431795 -0.612366
H  1.508468 -2.424229  0.012596
