30

C  0.883427 -0.815874  3.727902
O -0.264655 -0.522532  2.964363
C -0.048164  0.38678   1.90251 
C -1.36955   0.503479  1.146234
O -1.109806  1.30415   0.007671
C -2.076337  1.277531 -1.032465
C -1.359616  1.950397 -2.21652 
O -0.494311  1.074289 -2.904423
C  0.708801  0.700787 -2.252379
C  0.626616 -0.758163 -1.790384
O  1.727441 -0.978657 -0.927286
C  1.856353 -2.304904 -0.464886
H 1.291    0.088003 4.20223 
H  0.579321 -1.521928  4.503179
H  1.668095 -1.274439  3.109321
H 0.732981 0.018891 1.219531
H 0.259419 1.373185 2.283658
H -2.140019  0.960972  1.785704
H -1.711261 -0.50039   0.851488
H -2.974796  1.847292 -0.750619
H -2.364483  0.247936 -1.284505
H -2.100229  2.281512 -2.954938
H -0.814632  2.8283   -1.84032 
H  1.53071   0.811387 -2.971924
H  0.91274   1.344868 -1.388601
H -0.322453 -0.932685 -1.262318
H  0.66618  -1.435191 -2.657951
H  2.020547 -3.003661 -1.297195
H  2.722134 -2.328276  0.199958
H  0.964556 -2.623058  0.092985
