30

C  0.491456 -0.680671  4.243398
O -0.426237 -0.327543  3.23881 
C -0.046391  0.330081  2.052575
C -1.32786   0.514695  1.244976
O -0.956266  1.151947  0.037643
C -1.969976  1.232105 -0.949967
C -1.370817  1.914908 -2.185393
O -0.596936  1.043151 -2.977392
C  0.681612  0.679224 -2.484009
C  0.665055 -0.759407 -1.95987 
O  1.999005 -1.068178 -1.600143
C  2.169564 -2.328653 -0.994282
H 0.996349 0.202048 4.662765
H -0.086358 -1.170338  5.029097
H  1.25628  -1.377507  3.869582
H  0.673742 -0.269522  1.471969
H 0.410016 1.310945 2.262094
H -2.045905  1.128071  1.810756
H -1.785278 -0.467039  1.048265
H -2.819738  1.82806  -0.579673
H -2.334232  0.228106 -1.215493
H -2.188311  2.262831 -2.827642
H -0.777209  2.783129 -1.86131 
H  1.392085  0.744204 -3.318258
H  1.010712  1.359707 -1.688251
H -0.001525 -0.843873 -1.089716
H  0.299798 -1.439717 -2.745413
H  1.856037 -3.142209 -1.663869
H  3.233517 -2.435902 -0.773476
H  1.597823 -2.402654 -0.057751
