30

C  0.58952  -0.685534  4.093461
O -0.484405 -0.395639  3.226761
C -0.126731  0.293186  2.053088
C -1.390459  0.502471  1.23247 
O -0.99778   1.162446  0.044216
C -1.986657  1.247735 -0.967681
C -1.353325  1.929652 -2.186505
O -0.55636   1.057445 -2.954963
C  0.70365   0.687613 -2.419548
C  0.666283 -0.756737 -1.912542
O  1.977618 -1.060146 -1.473795
C  2.122653 -2.33142  -0.883801
H 1.082368 0.233515 4.440208
H  0.172048 -1.215587  4.951595
H  1.337437 -1.323924  3.60229 
H  0.651939 -0.231805  1.468065
H 0.393536 1.247932 2.255815
H -2.114704  1.107764  1.799431
H -1.850316 -0.472344  1.00788 
H -2.843319  1.846282 -0.618033
H -2.347682  0.245456 -1.243852
H -2.152315  2.276179 -2.852293
H -0.76975   2.79865  -1.846646
H  1.444762  0.76225  -3.225899
H  1.00314   1.358079 -1.603989
H -0.052453 -0.854769 -1.086436
H  0.355322 -1.431524 -2.72571 
H  1.861049 -3.133624 -1.588433
H  3.171501 -2.433292 -0.597793
H  1.493441 -2.430309  0.01266 
