30

C  1.054653 -1.024264  3.325299
O -0.013027 -0.787687  2.433716
C -0.211105  0.576629  2.105964
C -1.444316  0.666626  1.198759
O -1.050282  1.327989  0.009777
C -1.993185  1.316768 -1.048356
C -1.303197  1.884895 -2.295277
O -0.495797  0.93968  -2.958868
C  0.721516  0.569687 -2.330143
C  0.599742 -0.825202 -1.710728
O  1.842889 -1.107114 -1.09683 
C  1.834662 -2.246732 -0.265941
H  0.89213  -0.514705  4.28556 
H  1.096499 -2.102034  3.493487
H  2.011121 -0.686618  2.902992
H 0.662746 0.973609 1.567297
H -0.353613  1.171158  3.022249
H -2.259795  1.21846   1.692476
H -1.800393 -0.350075  0.974321
H -2.864409  1.942062 -0.793249
H -2.343364  0.293048 -1.248258
H -2.070225  2.188098 -3.017442
H -0.716083  2.769699 -2.005596
H  1.50343   0.555976 -3.100317
H  1.005544  1.292042 -1.554286
H -0.209791 -0.839779 -0.967656
H  0.365955 -1.566642 -2.491263
H  1.632527 -3.16165  -0.841252
H  2.825641 -2.32012   0.187069
H  1.079537 -2.153804  0.526516
