30

C  0.536455 -0.629971  4.166942
O -0.499891 -0.377341  3.245185
C -0.089082  0.271127  2.054733
C -1.356162  0.476901  1.233581
O -0.972618  1.143422  0.045454
C -1.972784  1.241559 -0.954164
C -1.35183   1.933537 -2.173631
O -0.567102  1.066341 -2.960138
C  0.699546  0.690119 -2.445425
C  0.666278 -0.757138 -1.94647 
O  1.985686 -1.069645 -1.539477
C  2.138222 -2.346587 -0.963935
H 1.011617 0.303269 4.50057 
H  0.083984 -1.129597  5.025693
H  1.306797 -1.283308  3.733199
H  0.677063 -0.330077  1.542231
H 0.358662 1.252897 2.282411
H -2.073887  1.079238  1.810735
H -1.818512 -0.496247  1.006635
H -2.823549  1.839133 -0.588768
H -2.340027  0.243075 -1.235848
H -2.157631  2.289206 -2.826286
H -0.761319  2.797268 -1.832354
H  1.428737  0.767473 -3.262327
H  1.012904  1.355166 -1.6306  
H -0.034116 -0.857048 -1.104931
H  0.333843 -1.425167 -2.756716
H  1.857573 -3.141483 -1.66952 
H  3.192672 -2.455363 -0.702105
H  1.528485 -2.450758 -0.05465 
