30

C  1.030218 -1.060769  3.360645
O -0.033558 -0.810842  2.468308
C -0.128569  0.534709  2.030618
C -1.399785  0.653204  1.181096
O -1.052     1.345575 -0.004303
C -2.00767   1.318671 -1.050252
C -1.336259  1.883959 -2.308711
O -0.511251  0.947111 -2.963454
C  0.706988  0.59867  -2.323832
C  0.605063 -0.803082 -1.715696
O  1.801618 -1.023173 -0.993713
C  1.797827 -2.193688 -0.206453
H  0.927817 -0.465677  4.279074
H  0.990764 -2.121842  3.614189
H  2.001703 -0.835082  2.89964 
H 0.745035 0.804829 1.418655
H -0.175092  1.20636   2.902095
H -2.193534  1.189525  1.723884
H -1.764662 -0.357574  0.943117
H -2.881597  1.938005 -0.789998
H -2.351073  0.290573 -1.23904 
H -2.112617  2.160791 -3.031392
H -0.7665    2.784799 -2.034123
H  1.499128  0.609881 -3.08362 
H  0.965334  1.319266 -1.537778
H -0.265778 -0.86084  -1.047403
H  0.47854  -1.554594 -2.511198
H  1.713248 -3.095692 -0.829431
H  2.746727 -2.219214  0.333529
H  0.969944 -2.183857  0.515569
