30

C  0.599377 -0.67777   4.087443
O -0.466053 -0.399055  3.206768
C -0.099859  0.3183    2.045382
C -1.37153   0.497188  1.220757
O -0.994197  1.179173  0.040022
C -1.987819  1.256902 -0.970987
C -1.349499  1.938636 -2.185968
O -0.554959  1.0602   -2.949012
C  0.702517  0.686291 -2.410253
C  0.659683 -0.759948 -1.909335
O  1.965916 -1.065463 -1.457283
C  2.10726  -2.344698 -0.883671
H 1.065651 0.246517 4.456453
H  0.179345 -1.229617  4.930535
H  1.36972  -1.292438  3.600613
H  0.647109 -0.237589  1.45676 
H 0.322733 1.301921 2.303608
H -2.114986  1.075757  1.790595
H -1.801165 -0.488784  0.985773
H -2.859946  1.813179 -0.593164
H -2.326572  0.247681 -1.254096
H -2.143325  2.289406 -2.85612 
H -0.762437  2.804683 -1.844735
H  1.447153  0.76271  -3.213252
H  0.999964  1.352772 -1.590835
H -0.068362 -0.861137 -1.091721
H  0.357529 -1.431471 -2.728496
H  1.858828 -3.137392 -1.603656
H  3.152282 -2.446946 -0.584147
H  1.465653e+00 -2.459010e+00  2.041000e-03
