30

C  0.888254 -0.787217  3.731858
O -0.263292 -0.503758  2.9698  
C -0.050226  0.386725  1.89141 
C -1.374867  0.492875  1.13938 
O -1.119262  1.275388 -0.013621
C -2.102558  1.252625 -1.042712
C -1.350018  1.958127 -2.190448
O -0.482051  1.093571 -2.888378
C  0.718201  0.70577  -2.240112
C  0.628898 -0.757158 -1.792081
O  1.729003 -0.99061  -0.93129 
C  1.850148 -2.320883 -0.478564
H 1.30065  0.123428 4.188767
H  0.586685 -1.479419  4.520504
H  1.668362 -1.258048  3.116753
H 0.72738  0.005739 1.211583
H 0.260766 1.379017 2.25415 
H -2.141595  0.961698  1.775073
H -1.719236 -0.515016  0.862196
H -3.000298  1.815562 -0.749821
H -2.379622  0.22656  -1.315408
H -2.066201  2.327903 -2.935806
H -0.80341   2.813371 -1.769026
H  1.540131  0.818458 -2.95934 
H  0.926861  1.340533 -1.370559
H -0.320635 -0.93253  -1.265402
H  0.66542  -1.426105 -2.666038
H  2.009709 -3.014616 -1.315969
H  2.716098 -2.35431   0.185638
H  0.956714 -2.63768   0.077482
