30

C -0.092233 -0.355424  4.884955
O -0.8858   -0.364804  3.719282
C -0.389829  0.425052  2.657693
C -1.387431  0.292026  1.510818
O -0.875627  1.058444  0.437091
C -1.634936  1.006781 -0.758424
C -0.888197  1.851744 -1.807881
O -0.741578  1.149821 -3.026261
C  0.504262  0.526646 -3.255807
C  0.764986 -0.639232 -2.294211
O  1.980151 -1.228432 -2.715715
C  2.41305  -2.315121 -1.9286  
H -2.50900e-03  6.58474e-01  5.29955e+00
H -0.58988  -0.998563  5.613241
H  0.915472 -0.746631  4.686078
H 0.601347 0.072377 2.330689
H -0.301901  1.481355  2.956953
H -2.37457   0.664158  1.825713
H -1.488145 -0.766774  1.225759
H -2.647523  1.403316 -0.583513
H -1.732494 -0.029679 -1.114335
H -1.441921  2.775534 -2.015499
H  0.091881  2.135545 -1.39901 
H  0.471392  0.143515 -4.281082
H  1.328048  1.252738 -3.176539
H  0.848577 -0.276812 -1.257499
H -0.063046 -1.364385 -2.346451
H  1.682301 -3.13606  -1.943126
H  3.354033 -2.664354 -2.35803 
H  2.582132 -2.011252 -0.885818
