30

C -0.832861  0.370231  5.591275
O -1.222836 -0.035217  4.298241
C -0.71196   0.760472  3.247918
C -1.251102  0.16796   1.949322
O -0.730035  0.955972  0.895888
C -1.126986  0.560989 -0.403927
C -0.478609  1.555935 -1.373931
O -0.607911  1.098721 -2.707333
C  0.545762  0.60815  -3.353257
C  0.905598 -0.811356 -2.897406
O  1.96444  -1.235676 -3.732844
C  2.437124 -2.539271 -3.476429
H -1.177224  1.390488  5.811482
H -1.295089 -0.324541  6.295098
H 0.259146 0.332245 5.710209
H 0.389359 0.742679 3.236979
H -1.042131  1.806609  3.34654 
H -2.351782  0.194481  1.953934
H -0.927696 -0.880335  1.854083
H -2.222998  0.592211 -0.501081
H -0.785824 -0.462437 -0.623577
H -0.996181  2.521235 -1.303096
H  0.574681  1.700006 -1.097876
H  0.314386  0.585424 -4.423829
H  1.406069  1.275377 -3.193483
H  1.219096 -0.813293 -1.841333
H  0.029238 -1.470451 -3.002519
H  1.644876 -3.287434 -3.61978 
H  3.244114 -2.729989 -4.186431
H  2.827346 -2.629184 -2.452817
