30

C -0.353654 -0.33222   4.196683
O  0.589397 -0.62627   3.188149
C 0.603    0.182882 2.032069
C -0.785693  0.475589  1.455626
O -0.55616   1.105556  0.208439
C -1.708096  1.308096 -0.593347
C -1.264003  1.985207 -1.895839
O -0.725917  1.080769 -2.832093
C  0.583711  0.594259 -2.588491
C  0.538191 -0.851944 -2.087317
O  1.882834 -1.285167 -2.004752
C  2.059853 -2.556843 -1.42359 
H -1.374662 -0.601886  3.895701
H -0.074402 -0.933708  5.064988
H -0.332856  0.729647  4.479282
H  1.168502 -0.382342  1.280695
H 1.148298 1.122842 2.215448
H -1.366952  1.137817  2.116343
H -1.34444  -0.463936  1.31949 
H -2.428289  1.958129 -0.070637
H -2.198652  0.34878  -0.817248
H -2.141527  2.4337   -2.376253
H -0.54228   2.780941 -1.656892
H  1.130904  0.621769 -3.539564
H  1.112815  1.222344 -1.860211
H  0.052023 -0.902784 -1.102531
H -0.036221 -1.474463 -2.7916  
H  1.548403 -3.338357 -2.003386
H  3.132852 -2.758527 -1.41814 
H  1.68303  -2.579881 -0.391004
