30

C  0.486028 -0.737102  4.188504
O -0.526356 -0.512573  3.22499 
C -0.14618  0.20863  2.07172
C -1.408507  0.375893  1.229631
O -1.026585  1.083131  0.065049
C -2.010782  1.165797 -0.951885
C -1.403635  1.932146 -2.133219
O -0.565597  1.133876 -2.937287
C  0.710749  0.801832 -2.416504
C  0.740863 -0.659851 -1.961256
O  2.075108 -0.929024 -1.571964
C  2.282514 -2.211281 -1.026206
H  0.774538 -1.795778  4.19274 
H  1.372575 -0.123661  3.994631
H  0.088763 -0.479404  5.176245
H  0.613617 -0.337036  1.489909
H 0.259508 1.197521 2.335255
H -2.170512  0.932174  1.797033
H -1.816572 -0.6138    0.973252
H -2.898028  1.705768 -0.58372 
H -2.320463  0.160588 -1.275639
H -2.214827  2.27395  -2.786631
H -0.860954  2.809226 -1.749209
H  1.445015  0.93731  -3.221157
H  0.982521  1.456754 -1.578759
H  0.051664 -0.814664 -1.118814
H  0.430679 -1.316041 -2.789805
H  2.028291 -3.000969 -1.747491
H  3.342392 -2.283768 -0.773904
H  1.684187 -2.359645 -0.115485
