30

C  0.586039 -0.674933  4.104961
O -0.479635 -0.391305  3.226008
C -0.103619  0.306551  2.0559  
C -1.373915  0.49897   1.232127
O -0.987626  1.163462  0.044044
C -1.980421  1.248196 -0.964089
C -1.351931  1.930666 -2.185077
O -0.558337  1.058523 -2.957228
C  0.702653  0.686279 -2.425901
C  0.664824 -0.759023 -1.921684
O  1.974482 -1.061724 -1.477586
C  2.120503 -2.337934 -0.898556
H 1.067562 0.2468   4.460487
H  0.162257 -1.210422  4.956743
H  1.345002 -1.306539  3.621988
H  0.631941 -0.268934  1.471726
H 0.336967 1.285331 2.302121
H -2.106261  1.095338  1.797848
H -1.820552 -0.481732  1.007151
H -2.836305  1.84586  -0.611058
H -2.341694  0.245679 -1.239122
H -2.153202  2.278199 -2.847548
H -0.766357  2.799016 -1.846941
H  1.441748  0.761968 -3.234028
H  1.005014  1.354481 -1.609554
H -0.057695 -0.859251 -1.099073
H  0.35836  -1.432886 -2.737317
H  1.866738 -3.134405 -1.612492
H  3.167799 -2.438478 -0.606471
H  1.485672 -2.447753 -0.007358
