30

C  0.586282 -0.653481  4.126449
O -0.484783 -0.37133   3.238421
C -0.103649  0.312492  2.062553
C -1.373564  0.508427  1.238922
O -0.984477  1.160936  0.044988
C -1.978995  1.243971 -0.961588
C -1.353976  1.92592  -2.18464 
O -0.562732  1.053742 -2.959056
C  0.701704  0.684725 -2.433846
C  0.668449 -0.758027 -1.922002
O  1.986645 -1.065069 -1.50689 
C  2.137561 -2.334647 -0.914839
H 1.035096 0.169032 4.427628
H  0.144456 -1.181553  4.976299
H  1.314032 -1.327471  3.647196
H  0.625503 -0.275312  1.482134
H 0.346016 1.2901   2.297211
H -2.10031   1.114875  1.801133
H -1.828162 -0.470466  1.022296
H -2.834487  1.841622 -0.607531
H -2.34029   0.240978 -1.234831
H -2.157513  2.272864 -2.844735
H -0.767768  2.794687 -1.848727
H  1.435287  0.756008 -3.247352
H  1.009201  1.357886 -1.623451
H -0.035111 -0.851351 -1.082397
H  0.34012  -1.433744 -2.727535
H  1.859287 -3.138438 -1.61123 
H  3.191199 -2.439914 -0.648318
H  1.524993 -2.427466 -0.006243
