30

C -0.649558  0.204836  5.460111
O -1.159864 -0.101933  4.181868
C -0.63542   0.682676  3.129922
C -1.314     0.205755  1.849223
O -0.779196  0.980741  0.79308 
C -1.292193  0.681435 -0.492258
C -0.594199  1.633572 -1.47389 
O -0.652022  1.116223 -2.790671
C  0.535494  0.595795 -3.345804
C  0.893538 -0.779221 -2.768426
O  1.994828 -1.246475 -3.522394
C  2.479042 -2.514902 -3.141499
H -0.870979  1.244275  5.740357
H -1.136934 -0.469297  6.167029
H 0.437791 0.050639 5.504438
H 0.455118 0.553002 3.044558
H -0.847299  1.751736  3.289184
H -2.403319  0.345176  1.927995
H -1.109587 -0.865169  1.69443 
H -2.382438  0.83174  -0.515224
H -1.078559 -0.363448 -0.764667
H -1.109751  2.602425 -1.478863
H  0.443526  1.788364 -1.149375
H  0.3523    0.489552 -4.420564
H  1.379366  1.286808 -3.199309
H  1.15944  -0.696785 -1.702697
H  0.032318 -1.459786 -2.862112
H  1.707409 -3.288964 -3.257233
H  3.319773 -2.74464  -3.798856
H  2.825384 -2.514132 -2.098335
