30

C  0.48773  -0.732588  4.187994
O -0.525128 -0.512618  3.224658
C -0.144863  0.20812   2.071076
C -1.407439  0.37755   1.229837
O -1.025173  1.084329  0.065084
C -2.009594  1.168005 -0.951547
C -1.401711  1.9329   -2.133453
O -0.56514   1.133043 -2.937489
C  0.710895  0.799263 -2.417032
C  0.739118 -0.662433 -1.961695
O  2.072884 -0.933147 -1.571839
C  2.278509 -2.215493 -1.025609
H  0.83316  -1.773711  4.147667
H  1.34179  -0.062758  4.03846 
H  0.062623 -0.545016  5.179476
H  0.613918 -0.338365  1.488618
H 0.262642 1.196147 2.335069
H -2.1682    0.934955  1.797813
H -1.81724  -0.611454  0.973581
H -2.8959    1.709475 -0.583321
H -2.320902  0.163116 -1.274737
H -2.21263   2.275604 -2.786731
H -0.857604  2.809358 -1.750041
H  1.445131  0.933696 -3.221887
H  0.983803  1.453845 -1.579392
H  0.049394 -0.816361 -1.11953 
H  0.428489 -1.318332 -2.790308
H  2.023505 -3.005091 -1.746717
H  3.338218 -2.289234 -0.772966
H  1.679725 -2.362805 -0.115017
