30

C  1.020843 -1.071392  3.399412
O -0.040311 -0.826753  2.50314 
C -0.042672  0.47343   1.934966
C -1.353587  0.620887  1.155045
O -1.065411  1.373658 -0.008814
C -2.025227  1.32873  -1.049714
C -1.36492   1.892228 -2.315092
O -0.522305  0.963072 -2.959854
C  0.693327  0.631479 -2.30629 
C  0.605952 -0.778009 -1.711841
O  1.719936 -0.933935 -0.853465
C  1.739422 -2.153593 -0.143817
H  0.982735 -0.386794  4.258524
H  0.908866 -2.098039  3.753587
H  1.996767 -0.964244  2.905927
H 0.807286 0.597508 1.247357
H 0.024908 1.227391 2.73431 
H -2.12539   1.118822  1.7618  
H -1.718334 -0.38194   0.88488 
H -2.904927  1.940584 -0.791035
H -2.358666  0.29596  -1.230077
H -2.14582   2.146833 -3.040917
H -0.811273  2.806018 -2.050741
H  1.496931  0.668042 -3.053246
H  0.925388  1.347391 -1.50825 
H -0.3338   -0.889586 -1.151761
H  0.617955 -1.533407 -2.513488
H  1.792436 -3.012943 -0.827326
H  2.631184 -2.142163  0.486382
H  0.848717 -2.259236  0.490421
