30

C  0.281231 -0.727712  4.354521
O -0.697013 -0.477256  3.370089
C -0.240358  0.259822  2.254822
C -1.435808  0.430066  1.321735
O -0.963792  1.125133  0.183123
C -1.885137  1.236812 -0.889141
C -1.167621  1.913754 -2.068495
O -0.736473  0.983389 -3.04046 
C  0.586937  0.497932 -2.953015
C  0.74351  -0.585999 -1.88044 
O  2.009646 -1.180682 -2.10178 
C  2.352629 -2.18704  -1.177073
H 0.677243 0.208608 4.772044
H -0.205424 -1.297625  5.148241
H  1.116669 -1.314818  3.947743
H  0.565519 -0.276838  1.727897
H 0.141846 1.246445 2.560541
H -2.233259  0.995985  1.827226
H -1.831493 -0.558742  1.042879
H -2.755923  1.837329 -0.581972
H -2.242393  0.243033 -1.198439
H -1.868645  2.590589 -2.572874
H -0.32468   2.507109 -1.686754
H  0.816297  0.057938 -3.930046
H  1.29605   1.317484 -2.76168 
H  0.695988 -0.149906 -0.872734
H -0.06395  -1.328606 -1.981618
H  1.643214 -3.025926 -1.215953
H  3.347596 -2.545437 -1.448495
H  2.377605 -1.794841 -0.149872
