30

C -0.368217 -0.345673  4.183696
O  0.615216 -0.594002  3.202237
C 0.617311 0.197415 2.033038
C -0.773827  0.487645  1.46212 
O -0.548223  1.111313  0.210999
C -1.703329  1.312841 -0.586479
C -1.263942  1.984697 -1.893292
O -0.731964  1.076087 -2.828978
C  0.578533  0.589183 -2.590939
C  0.5346   -0.854905 -2.083529
O  1.879195 -1.289734 -2.009148
C  2.058949 -2.558581 -1.422716
H -1.36631  -0.665804  3.856271
H -0.082841 -0.93268   5.059941
H -0.407833  0.715719  4.466323
H  1.175455 -0.378636  1.283915
H 1.166648 1.138429 2.198033
H -1.351637  1.153983  2.121705
H -1.334932 -0.451333  1.331815
H -2.420186  1.965827 -0.062879
H -2.196351  0.353507 -0.804847
H -2.142859  2.433249 -2.371102
H -0.539626  2.779853 -1.660377
H  1.120141  0.612122 -3.545316
H  1.112537  1.219799 -1.868435
H  0.055669 -0.90106  -1.094976
H -0.045891 -1.479427 -2.781027
H  1.54182  -3.342394 -1.994318
H  3.131665 -2.76182  -1.424639
H  1.690237 -2.575618 -0.387075
