30

C  1.044002 -1.043721  3.343483
O -0.02249  -0.80058   2.452344
C -0.168843  0.556002  2.069543
C -1.421405  0.660398  1.190755
O -1.049961  1.33588   0.002628
C -2.000391  1.317997 -1.048472
C -1.32049   1.884415 -2.301753
O -0.504748  0.943103 -2.96118 
C  0.713525  0.583935 -2.327804
C  0.602288 -0.815003 -1.715287
O  1.82084  -1.062215 -1.040405
C  1.813537 -2.220011 -0.234808
H  0.910613 -0.491532  4.284462
H  1.046113 -2.115041  3.553179
H  2.008679 -0.760017  2.900595
H 0.706066 0.887509 1.48967 
H -0.258396  1.196803  2.960824
H -2.226189  1.205637  1.708503
H -1.782464 -0.353269  0.960306
H -2.872044  1.94121  -0.789777
H -2.348478  0.292489 -1.242743
H -2.092801  2.174243 -3.023731
H -0.74186   2.777402 -2.020238
H  1.500482  0.584134 -3.093   
H  0.984412  1.304609 -1.54588 
H -0.242781 -0.852996 -1.0135  
H  0.428185 -1.562782 -2.505308
H  1.675457 -3.128264 -0.838871
H  2.782541 -2.267311  0.266626
H  1.016613 -2.173023  0.519858
