30

C  0.49047179 -0.71511586  4.11664065
O -0.53697884 -0.26570282  3.28964587
C -0.14762096  0.07017082  1.95109088
C -1.38516615  0.61517782  1.22031263
O -1.00195722  0.95905065 -0.07036475
C -2.05403864  1.40880496 -0.8685419 
C -1.49157257  1.81370277 -2.24697206
O -0.65859724  0.87905152 -2.86223879
C  0.67236657  0.68305633 -2.38190676
C  0.78085442 -0.76717637 -1.93390319
O  2.08685453 -0.99449226 -1.49763155
C  2.38805956 -2.22821721 -0.84190468
H  1.16039331 -0.08935787  4.34674442
H  0.05782466 -0.97531165  5.104944  
H  0.8880452  -1.6333506   3.75117858
H  0.30241478 -0.88371398  1.43883543
H 0.64300088 0.84309768 2.08105538
H -1.77477483  1.57392393  1.73933757
H -2.23672206 -0.10538016  1.30669669
H -2.53183005  2.30624122 -0.48027309
H -2.81155988  0.60086796 -0.98732673
H -2.38943251  2.0065758  -2.87421574
H -1.09190411  2.81906516 -2.16994439
H  1.40079445  0.97328081 -3.19014176
H  0.83090542  1.35528761 -1.57966701
H  0.0318708  -0.95867236 -1.04035807
H  0.48073809 -1.46024305 -2.75944205
H  2.27244343 -3.07736453 -1.60785479
H  3.38049268 -2.18832985 -0.51763987
H  1.69358912 -2.34594022  0.0213814 
