30

C 1.01422331 0.55761402 2.19307171
O -0.10646566  0.03173852  2.88295541
C -0.89841858 -0.91821212  2.17447281
C -1.8679037  -0.37546261  1.15988857
O -1.28044494  0.65933442  0.41233615
C -1.99407243  1.08998206 -0.75306186
C -1.13002542  2.15712898 -1.48435328
O -0.21801558  1.48381122 -2.26683919
C  1.0608453   0.93473743 -1.69694608
C  0.96898132 -0.52412482 -1.58119698
O  2.12860092 -0.904673   -0.8717084 
C  2.216442   -2.34349697 -0.44107026
H 0.70735171 1.49826662 1.636783  
H 1.67981712 0.82856709 2.90372777
H  1.40287429 -0.33697386  1.60408861
H -1.57100387 -1.54784392  2.86535665
H -0.20730695 -1.74475833  1.67293404
H -2.70575722  0.0975265   1.64085033
H -2.2646863  -1.21788538  0.41123218
H -3.03930399  1.53698768 -0.47744806
H -2.21662799  0.25087786 -1.37806155
H -1.77201792  2.78683169 -2.22086372
H -0.67352201  2.7104069  -0.6559625 
H  1.82868425  1.33026068 -2.34371488
H  1.08451736  1.45830769 -0.74223107
H  0.0059961  -0.93559488 -1.20569436
H  0.96128256 -1.15737841 -2.49891366
H  2.08578934 -2.85299714 -1.31860707
H  3.20424513 -2.41645257  0.03496319
H  1.28905563 -2.50335597  0.30136535
