30

C 0.39847031 0.4042648  4.30689607
O -0.590328    0.46346409  3.34808133
C -0.32226078 -0.3711546   2.23311203
C -1.47436996 -0.17348756  1.17567105
O -0.99399152  0.64963401  0.195754  
C -1.90759811  1.13796512 -0.78429217
C -1.18501199  2.01271224 -1.74253274
O -0.39393757  1.39403667 -2.67291644
C  0.86333347  0.88706952 -2.24599587
C  0.81462626 -0.6124442  -2.15516519
O  2.07899137 -1.12618754 -1.79946625
C  2.15312921 -2.51967455 -1.63414471
H 1.3227358  0.73938925 3.87049051
H 0.08397968 1.07371529 5.07020365
H  0.58050741 -0.55369525  4.84299419
H -0.36041507 -1.39115076  2.47741617
H  0.63455932 -0.16351107  1.77022922
H -2.28385437  0.28292957  1.85418805
H -1.77592496 -1.10767356  0.89130493
H -2.74566674  1.64835497 -0.3717117 
H -2.28620556  0.28637272 -1.35668817
H -1.99744688  2.58815281 -2.3787408 
H -0.62418427  2.77986352 -1.11027272
H  1.71284875  1.23553171 -2.94222929
H  1.19291169  1.37285526 -1.28778974
H  0.16648549 -0.82676756 -1.32058446
H  0.55962189 -1.03502438 -3.15259626
H  2.00649646 -3.0519108  -2.5555305 
H  3.19933576 -2.71399078 -1.29135932
H  1.29907024 -2.7158258  -0.91203233
