30

C -1.94349841  0.54061857  5.50263814
O -1.19364121  0.03031656  4.43849677
C -1.12143301  0.83679823  3.32335923
C -0.24348677  0.18139548  2.32308673
O -0.16847849  0.9787658   1.1748539 
C 0.53898472 0.54477732 0.03895071
C  0.4429906   1.61203792 -1.05001308
O -0.38695809  1.17180917 -2.12955998
C  0.18627781  0.54548284 -3.25059228
C  0.68392736 -0.87051544 -2.98672584
O  1.07281886 -1.35048065 -4.26248814
C  1.51401031 -2.72291945 -4.28522972
H -3.02334435  0.75220236  5.10107579
H -1.85609179 -0.16074803  6.30797323
H -1.64061193  1.51532442  5.77092366
H -0.65424366  1.75478738  3.72284968
H -2.13377907  1.01483832  2.9664092 
H -0.65058219 -0.77147625  1.96895123
H 0.73744706 0.11030105 2.72612232
H  0.2686874  -0.42445364 -0.24126378
H 1.56602861 0.46458879 0.33097523
H -0.1404122   2.52611543 -0.63869124
H  1.49028904  2.00015164 -1.37042037
H -0.55176736  0.40807962 -4.07666455
H  0.96800802  1.20371207 -3.79605712
H  1.46673113 -0.85446332 -2.18030841
H -0.14995876 -1.39398578 -2.48675574
H  0.68029303 -3.42694273 -4.04518716
H  1.8431381  -2.96386858 -5.29293535
H  2.36304952 -2.78690974 -3.4975374 
