30

C -0.27965719 -1.37505741  4.27345485
O -0.45601432 -0.24478121  3.46451621
C -0.90186665 -0.48723283  2.15095422
C -1.0134613   0.81390102  1.42548286
O -1.36292319  0.57691768  0.09180322
C -1.33922026  1.67545702 -0.79629678
C -1.81030371  1.25095134 -2.14040903
O -1.1330512   0.15498772 -2.7399835 
C  0.28777187  0.25791843 -2.94839319
C  1.00719637 -0.57161354 -1.87020665
O  2.37008752 -0.28609318 -2.010715  
C  3.22657375 -0.94934173 -1.10513587
H  0.50055239 -1.96599392  3.90754464
H  0.0472922  -1.04361565  5.2030727 
H -1.26508528 -1.91621194  4.37021409
H -1.80510563 -0.99803135  2.20143088
H -0.21309558 -1.19209888  1.53383096
H -0.05515993  1.34988678  1.5030887 
H -1.71064476  1.4243827   1.9201465 
H -0.3662604   2.04688802 -0.8849506 
H -1.95133971  2.53509616 -0.41244098
H -2.84990229  0.9564254  -2.02227709
H -1.82965841  2.10742461 -2.82651093
H  0.5468494  -0.09582087 -3.81263068
H  0.69117338  1.28118882 -2.83212411
H  0.65803611 -0.35236245 -0.83517928
H  0.92500439 -1.66508416 -2.10587241
H  3.21154811 -2.04326429 -1.15300458
H  4.20654866 -0.72954629 -1.24512275
H  2.90539984 -0.57646451 -0.06712561
