30

C  0.54918798 -0.63500466  4.21071303
O -0.51242442 -0.32063713  3.32011935
C -0.07442467  0.27609282  2.07624207
C -1.39381565  0.48059062  1.25386009
O -0.98953563  1.14294974  0.06551024
C -1.99831072  1.16729005 -0.97021455
C -1.3354577   1.88517099 -2.14582962
O -0.50410461  1.10683341 -2.98015987
C  0.73210767  0.72482126 -2.47322673
C  0.63054623 -0.71175    -1.95685453
O  1.98753699 -1.08012615 -1.55179663
C  2.14194911 -2.3486552  -1.00282347
H 1.1177253  0.29178161 4.35807817
H  0.10574389 -0.999841    5.13706351
H  1.2127872  -1.37416238  3.82907042
H  0.56241012 -0.46605707  1.43778564
H 0.35982006 1.34742394 2.20232513
H -2.19875607  1.07557325  1.81287133
H -1.84474953 -0.47894199  1.04075102
H -2.88952467  1.62353535 -0.68102778
H -2.24669682  0.18536859 -1.32823754
H -2.14865696  2.28505568 -2.85808133
H -0.82018294  2.76818128 -1.74770763
H  1.48965785  0.76589209 -3.37050163
H  1.14378221  1.37409024 -1.60200449
H  0.06049058 -0.77039438 -1.08244796
H  0.13425937 -1.43594522 -2.67630232
H  1.89336357 -3.12307442 -1.6819048 
H  3.11252374 -2.4400591  -0.73884035
H  1.40245775 -2.39912599 -0.13954646
