30

C 1.11426072 0.20940347 2.24750241
O -0.12667994  0.30774493  2.79742629
C -1.05860794 -0.68751822  2.48977077
C -1.82822009 -0.41911648  1.15379176
O -1.22958664  0.63409246  0.38411251
C -1.98207405  1.03830746 -0.71004412
C -1.18257944  2.10668637 -1.50947257
O -0.16433659  1.5638595  -2.33460414
C  0.94430145  1.05788213 -1.73868399
C  0.98384304 -0.44610406 -1.64018168
O  2.08499926 -0.7783968  -0.90696636
C  2.2414268  -2.15177316 -0.67255352
H 1.0326506  0.30280511 1.15218702
H 1.86091676 0.96461841 2.61741606
H  1.55895853 -0.84205215  2.41718065
H -1.78730211 -0.71534262  3.35318689
H -0.56756909 -1.70649172  2.38640678
H -2.97421231 -0.18085809  1.28498876
H -1.80414334 -1.43791063  0.56945548
H -2.88695642  1.38946359 -0.37205875
H -2.27282796  0.15603628 -1.3710031 
H -1.78532364  2.61309133 -2.24995602
H -0.70969759  2.72173336 -0.80318236
H  1.82620681  1.3617447  -2.3586447 
H  1.04097806  1.64878963 -0.78410633
H  0.09838305 -0.74573983 -1.11111516
H  1.01866455 -0.99486321 -2.65049048
H  2.31004243 -2.53195131 -1.71198895
H  3.19334995 -2.31908591 -0.10215232
H  1.33586185 -2.54426449 -0.1138586 
