30

C  1.36235749 -0.23184518  2.82678016
O  0.4060108  -0.08768985  1.87893133
C -0.89900132  0.26785611  2.41700253
C -1.85445951  0.52240865  1.23616859
O -1.1293298   1.22717727  0.16216354
C -1.84694122  1.57695462 -0.97130631
C -0.81360577  1.9035021  -2.10566792
O -0.46001699  0.80687033 -2.8510325 
C  0.75072242  0.16355764 -2.61031031
C  0.6766353  -0.75026047 -1.33343553
O  1.75534294 -1.68822288 -1.4571509 
C  1.84759382 -2.58322855 -0.45451114
H  1.29030992 -1.07883965  3.58244317
H  2.31511751 -0.29756403  2.36747432
H 1.46376836 0.5752483  3.54268975
H -0.72644904  1.14242419  3.06135904
H -1.31810078 -0.58697923  2.96319668
H -2.7311188   1.15046832  1.56001084
H -2.16324989 -0.47012321  0.86990974
H -2.52427324  2.38880644 -0.82083787
H -2.40116928  0.67872419 -1.32080738
H -1.33086782  2.64742669 -2.81646351
H  0.08810527  2.35072124 -1.59138062
H  0.93448794 -0.52859418 -3.46608433
H  1.57065     0.96248164 -2.44584087
H  0.65675102 -0.11783791 -0.35397914
H -0.27833204 -1.36459447 -1.41092558
H  1.00981705 -3.23932998 -0.48786558
H  2.73319136 -3.27554802 -0.59316446
H  1.97133364 -2.29476635  0.5463188 
