30

C 0.89336296 0.3527839  3.7133799 
O -0.30562946  0.5175571   2.96895406
C -0.73593193 -0.64399103  2.23370512
C -1.78424504 -0.15527797  1.19750389
O -1.13309671  0.65503046  0.22815093
C -1.96741515  1.08896698 -0.8157936 
C -1.264342    2.04452354 -1.71208012
O -0.33276139  1.47073285 -2.63900265
C  0.88388338  1.01613703 -2.0033512 
C  0.84409938 -0.53454729 -1.88901238
O  2.24008427 -0.98892625 -1.65193277
C  2.2595715  -2.34938379 -1.33296087
H 1.61622264 0.01867969 3.05230065
H 0.93829263 1.29372999 4.23366743
H  0.70441987 -0.32245451  4.61444184
H -1.13385881 -1.40524289  2.75705795
H  0.03468827 -1.1653095   1.66795635
H -2.5358678   0.26002135  1.73739043
H -2.10018456 -1.10870733  0.70394931
H -2.90409683  1.52107542 -0.35170391
H -2.17408554  0.116077   -1.46291992
H -2.11479848  2.41727943 -2.40041627
H -0.85264756  2.72072159 -1.04605941
H  1.7186243  1.3408336 -2.7491442
H  1.17188777  1.49496093 -1.04550534
H  0.1629436  -0.84448681 -1.00366222
H  0.59507083 -0.84722893 -2.96599119
H  2.01935279 -2.95796374 -2.27101406
H  3.19427001 -2.54240061 -0.89614947
H  1.53791323 -2.56642441 -0.56843133
