30

C -1.72098265  0.59137252  5.62229548
O -1.17342851  0.02482615  4.49629316
C -1.13416941  0.89786445  3.33036104
C -0.47525051  0.07551897  2.2552108 
O -0.29009327  1.00182447  1.14737648
C  0.26136639  0.45163108 -0.03072184
C  0.2722617   1.53644319 -1.11864094
O -0.43651434  1.16150641 -2.2472115 
C  0.30585525  0.60386667 -3.32813099
C  0.7199929  -0.81194853 -3.06074247
O  1.29849363 -1.32528875 -4.27348043
C  1.68821117 -2.66559687 -4.16456421
H -2.68203165  0.99087618  5.51505598
H -1.90713544 -0.17765095  6.36945368
H -1.13141046  1.38061905  6.02249001
H -0.57170742  1.8511305   3.50662565
H -2.1256582   1.14140747  3.01107469
H -1.03945766 -0.84124563  1.90042431
H  0.52964939 -0.33204256  2.47305146
H -0.38198201 -0.31396893 -0.23115074
H 1.35751324 0.03846344 0.13798912
H -0.25535623  2.31026306 -0.73638314
H  1.27122573  1.79425466 -1.33422986
H -0.3689686   0.59589021 -4.17226707
H  1.22956448  1.21071894 -3.48252441
H  1.48146645 -0.93939372 -2.29086102
H -0.14302293 -1.49703273 -2.7528209 
H  0.85276862 -3.37708515 -3.94335921
H  2.26299652 -2.87901207 -5.0727719 
H  2.51630679 -2.81752821 -3.46377165
