30

C  0.57841406 -0.63114696  4.09045316
O -0.49301658 -0.39773681  3.20598273
C -0.05413     0.27728818  2.03505684
C -1.32894587  0.50946514  1.23070221
O -0.99313965  1.17326542  0.03293515
C -2.02933341  1.21190412 -0.962841  
C -1.42305819  1.95987339 -2.18808366
O -0.53738458  1.06517497 -2.95428889
C  0.77925929  0.67612899 -2.4003971 
C  0.69821266 -0.74654898 -1.88066859
O  1.94359432 -1.0567513  -1.45129421
C  2.06866873 -2.34883754 -0.93200936
H 1.04951756 0.2708829  4.57340293
H  0.18870359 -1.30327227  4.93843036
H  1.42420961 -1.16172445  3.62745994
H  0.67672362 -0.33709287  1.45854961
H 0.4334581  1.27124558 2.2761974 
H -2.08227035  1.1435692   1.85868173
H -1.72997799 -0.4538567   1.10275764
H -2.94451241  1.79218789 -0.59131425
H -2.29430033  0.16815157 -1.28966853
H -2.16573009  2.17180719 -2.86215296
H -0.84060032  2.74914406 -1.85861322
H  1.5654269   0.89294726 -3.25114246
H  0.99282547  1.36987133 -1.53136144
H -0.14794529 -0.98251206 -1.08503461
H  0.47173938 -1.34556125 -2.79726667
H  1.88132912 -3.14000023 -1.70861436
H  3.11520442 -2.54228105 -0.5088709 
H  1.38177759 -2.54958736 -0.10825759
