30

C 0.48243704 0.37226195 4.26287752
O -0.55137571  0.43745775  3.29098408
C -0.38840065 -0.44531524  2.18142648
C -1.47623995 -0.1586094   1.26002733
O -1.00993109  0.74781935  0.19704787
C -1.93248443  1.0761433  -0.79988618
C -1.16559982  2.02139627 -1.76756879
O -0.36335174  1.38306187 -2.70384783
C  0.83032322  0.90352918 -2.23183819
C  0.78359974 -0.61765654 -2.17120119
O  2.06733853 -1.11490361 -1.7289104 
C  2.1491769  -2.48867953 -1.5514084 
H 1.33847914 0.75794325 3.75323012
H 0.12615082 1.0115565  5.0832597 
H  0.56759336 -0.64925832  4.62876804
H -0.42627519 -1.49742719  2.4588581 
H  0.52519613 -0.27081584  1.60899996
H -2.33086736  0.30481928  1.74073127
H -1.78879691 -1.10585982  0.80980362
H -2.77703084  1.46459    -0.26888631
H -2.14584734  0.18650652 -1.4178049 
H -1.77903945  2.79291306 -2.38666962
H -0.56079302  2.6352873  -1.14279057
H  1.58498172  1.1869613  -2.9009006 
H  1.04139528  1.24026482 -1.23775436
H -0.08304378 -0.8205139  -1.41388386
H  0.49143212 -1.02618027 -3.09855443
H  1.90249317 -3.00772025 -2.43479033
H  3.16422418 -2.59221829 -1.22538975
H  1.48349033 -2.73503931 -0.79245564
