30

C -0.30547421 -0.23144862  4.26329144
O  0.40059568 -0.73265552  3.22219877
C 0.5314516  0.07219457 2.10106103
C -0.83523633  0.44135192  1.45454194
O -0.57367225  1.01518496  0.22496517
C -1.7301184   1.22536554 -0.63536443
C -1.23774822  1.9908699  -1.86783701
O -0.73270125  1.07323537 -2.86307775
C  0.63329788  0.61264735 -2.65299213
C  0.60067684 -0.8712962  -2.18803766
O  1.90519733 -1.23096745 -2.00599633
C  2.00929003 -2.46825056 -1.46376123
H -1.44617728 -0.30932438  4.07347196
H -0.1037169  -0.72111283  5.11725777
H -0.0099044   0.8601196   4.58213393
H  1.22031798 -0.51573716  1.38412912
H 1.20638205 0.93976518 2.29168   
H -1.34163531  1.11645093  2.11612097
H -1.35549388 -0.3750658   1.280688  
H -2.41984612  1.91999152  0.06191574
H -2.27683869  0.35644897 -0.99302659
H -1.96953587  2.58930076 -2.51703296
H -0.55041924  2.76377622 -1.64777354
H  1.19882049  0.80881208 -3.58742955
H  1.17468029  1.20034846 -1.86630935
H  0.09510757 -0.97304394 -1.17777179
H  0.05755322 -1.399619   -2.83519121
H  1.64842136 -3.2604574  -2.12524983
H  3.07006764 -2.71143183 -1.48100651
H  1.52534312 -2.54695277 -0.50983158
