30

C  1.40538558 -0.21658411  2.81332164
O  0.30226534 -0.16893444  1.87816681
C -0.91753063  0.33829969  2.4222452 
C -1.88744323  0.69895537  1.29146953
O -1.15291821  1.10571644  0.23608726
C -1.85809085  1.40669907 -0.97926175
C -0.85745796  1.98130692 -2.05177327
O -0.36875658  0.83748133 -2.90077038
C  0.83341723  0.26336949 -2.54907749
C  0.72590884 -0.78172891 -1.35488383
O  1.733753   -1.73834819 -1.58110075
C  1.8734393  -2.61376268 -0.44542889
H  1.09409363 -0.94553322  3.55963311
H  2.21303201 -0.63585256  2.35606102
H 1.63540783 0.70366553 3.29305027
H -0.65224211  1.13256506  3.06135968
H -1.43088829 -0.43365311  2.98702642
H -2.687122    1.27961362  1.77745859
H -2.47410054 -0.20638908  1.11782734
H -2.49355369  2.31221086 -0.67749009
H -2.33217409  0.44875823 -1.35445914
H -1.51176764  2.60022321 -2.62638163
H -0.08137206  2.38807268 -1.69143584
H  1.18940371 -0.41723106 -3.3517307 
H  1.6668989   1.00042853 -2.47893351
H  0.78495777 -0.21145837 -0.41284553
H -0.32037042 -1.32614127 -1.3452879 
H  0.94761292 -3.25395575 -0.23726009
H  2.70574155 -3.18814439 -0.72147946
H  2.11161889 -2.01113427  0.53901156
