30

C  0.62081914 -0.70865227  4.06746639
O -0.46556074 -0.41063194  3.1793725 
C -0.11622107  0.3755906   2.05174019
C -1.34622146  0.56662541  1.22399748
O -1.00322145  1.13587195  0.02590434
C -1.98722548  1.22110038 -0.98407046
C -1.3519329   1.96541059 -2.18115178
O -0.53706489  1.05435111 -2.93886107
C  0.66670534  0.66057543 -2.38324604
C  0.66899434 -0.77214498 -1.90845421
O  1.91169339 -1.04106486 -1.4377111 
C  2.13503058 -2.33446735 -0.898147  
H 1.04249378 0.22779327 4.54377576
H  0.07123609 -1.27500467  4.89140866
H  1.44859952 -1.35985121  3.64945747
H  0.6839556  -0.24903003  1.59339936
H 0.32708991 1.33464439 2.3896583 
H -2.1237367   1.14744441  1.80598857
H -1.74005174 -0.42440516  1.06746899
H -2.86640734  1.70464664 -0.66008071
H -2.24586597  0.16596022 -1.34396726
H -2.15876412  2.29150154 -2.91002784
H -0.76292512  2.68610854 -1.8467568 
H  1.44143969  0.76828074 -3.16625355
H  1.07673988  1.31034619 -1.51844069
H -0.01519707 -0.7837657  -1.042884  
H  0.43817188 -1.45803836 -2.70647029
H  1.95404284 -3.20470676 -1.70794418
H  3.17355506 -2.39851359 -0.59573541
H  1.4764618  -2.56331373  0.0207976 
