30

C  0.19065724 -0.71740376  4.4503295 
O -0.68899363 -0.47420797  3.41054727
C -0.22889334  0.25136466  2.32608525
C -1.39786641  0.42589633  1.35546071
O -0.96561079  1.10592353  0.21021388
C -1.84385939  1.20600173 -0.9288693 
C -1.0850362   1.897864   -1.98927774
O -0.75164458  1.03490219 -3.05573297
C  0.51537456  0.50085925 -3.11303529
C  0.72292166 -0.52580669 -1.9616482 
O  1.98339956 -1.21559656 -2.21877049
C  2.34626285 -2.14147722 -1.1728295 
H 0.69092439 0.18842961 4.88194613
H -0.37387063 -1.21634304  5.21049065
H  0.97435179 -1.33242364  4.02549715
H  0.68125854 -0.30527314  1.89284405
H 0.11581318 1.29581587 2.63620586
H -2.19060438  1.00971376  1.8814815 
H -1.94032609 -0.59120503  1.02778649
H -2.79000998  1.61698027 -0.55880776
H -2.07313678  0.1318043  -1.19885864
H -1.71346589  2.74978097 -2.4241755 
H -0.24494902  2.30500125 -1.48043454
H  0.63389754  0.09133409 -4.12038364
H  1.21315036  1.33646292 -3.0422365 
H  0.90592537 -0.01080968 -1.00198613
H -0.11521653 -1.31279589 -2.01560816
H  1.55845881 -3.00522285 -1.0333718 
H  3.27092698 -2.64181363 -1.49958159
H  2.36391535 -1.77543012 -0.20122808
