30

C 0.89406262 0.62573867 2.19502916
O -0.13946162  0.03157634  2.90786305
C -0.87627985 -0.9401875   2.20628379
C -1.94325616 -0.37733538  1.19754007
O -1.26197646  0.59146092  0.38980941
C -1.96702329  1.10759464 -0.73925327
C -1.06151918  2.09880216 -1.46763813
O -0.1332395   1.52376344 -2.27023957
C  0.99520034  0.96528242 -1.70279023
C  0.90361626 -0.55590653 -1.5288072 
O  2.16028226 -0.94563835 -0.88802421
C  2.2226554  -2.31811051 -0.58813781
H 0.61580403 1.50029321 1.53844328
H 1.62504238 0.96514184 2.96590401
H  1.44855235 -0.07276373  1.523484  
H -1.34930893 -1.45307604  3.00907262
H -0.15428572 -1.63752416  1.71922889
H -2.69005905  0.17839643  1.88031458
H -2.35206417 -1.18778349  0.60346411
H -3.01856707  1.45848536 -0.41574912
H -2.19504105  0.18788048 -1.33602955
H -1.82607765  2.67201771 -2.05801291
H -0.55754289  2.80466116 -0.67282343
H  1.79402782  1.2797436  -2.28963314
H  1.24031557  1.35304254 -0.66498933
H  0.06887433 -0.7216143  -0.87458549
H  0.83049504 -1.12480873 -2.47803121
H  2.4222383  -2.93447061 -1.49379467
H  3.08452344 -2.46869683 -0.11100429
H  1.32959867 -2.64212507 -0.10277535
