30

C  0.50469232 -0.39737392  4.30970181
O -0.53349586 -0.13792414  3.33103298
C -0.11496037  0.00396881  2.00686861
C -1.35917861  0.27786773  1.22028055
O -0.95645363  1.06386838  0.07319306
C -1.98221991  1.25114384 -0.90475935
C -1.32915453  1.95143798 -2.12234342
O -0.50444212  1.08789674 -2.90015592
C  0.74453764  0.74706301 -2.42542933
C  0.69039617 -0.68770271 -1.9787877 
O  1.96364128 -0.99118972 -1.51454165
C  2.13042941 -2.3027397  -1.14925784
H 1.20452626 0.50597017 4.27658095
H -0.04540458 -0.53653277  5.19242276
H  1.03990041 -1.24328938  4.00903011
H  0.34410182 -0.82130452  1.68847508
H 0.51199359 0.88358838 1.93681543
H -2.06477405  0.84272152  1.94481461
H -1.82226694 -0.60667532  0.87387092
H -2.788097    1.82146978 -0.462859  
H -2.33770949  0.2898367  -1.30729476
H -2.11057752  2.27856231 -2.78928666
H -0.72843848  2.77141667 -1.75191624
H  1.40429889  0.80869178 -3.34646916
H  1.19154567  1.3973402  -1.66278998
H -0.00542536 -0.70302198 -1.13974636
H  0.35831247 -1.41097738 -2.80066613
H  1.81424336 -3.0855565  -1.97553387
H  3.11632764 -2.60841992 -0.86356591
H  1.48647912 -2.64192134 -0.1923867 
