30

C  1.36734536 -0.31440603  2.91370448
O  0.20538554 -0.4403992   2.01690142
C -0.80349514  0.39703157  2.45489315
C -1.82532505  0.61652817  1.25557812
O -1.14958098  1.21365934  0.16209334
C -1.95874111  1.4126699  -1.08521941
C -0.90146317  1.94910026 -2.07512081
O -0.41122153  0.91305158 -2.87874457
C  0.81635983  0.28880906 -2.50844625
C  0.69311118 -0.78620092 -1.38133661
O  1.88076218 -1.56846143 -1.40775356
C  1.8571062  -2.67417537 -0.4875425 
H  1.08301382 -0.70371774  3.96033199
H  2.06553508 -1.06371424  2.39469451
H 1.6953966  0.64505284 3.17743656
H -0.43081282  1.38233285  2.90450926
H -1.414786   -0.14010344  3.32133175
H -2.53920734  1.35858671  1.5902969 
H -2.30683546 -0.29368498  0.98822182
H -2.72593749  2.0573918  -0.79857688
H -2.39238081  0.44711526 -1.33848776
H -1.35342866  2.63772947 -2.79938994
H -0.13462927  2.38914343 -1.47104461
H  1.25487842 -0.35602464 -3.36053139
H  1.48755463  1.07099487 -2.32143012
H  0.76924166 -0.22936271 -0.45401921
H -0.12377819 -1.38486479 -1.45319948
H  0.8794131  -3.31710143 -0.71101131
H  2.69749831 -3.21770837 -0.7761163 
H  1.77754418 -2.34107895  0.47360174
