30

C  1.38747024 -0.29750194  2.99609887
O  0.37787428 -0.26355837  1.97366763
C -0.90122093  0.3768684   2.46883628
C -1.80353557  0.55069622  1.24344177
O -1.13364916  1.13343045  0.14841647
C -1.84914941  1.34582813 -1.0384389 
C -0.89425446  1.9530612  -2.055492  
O -0.33357359  0.95809535 -2.92728508
C  0.80193017  0.30616563 -2.54660275
C  0.57564909 -0.78202197 -1.38754684
O  1.73248341 -1.61877893 -1.44765618
C  1.81487378 -2.66362727 -0.49031714
H  1.18094445 -0.83886119  3.84364521
H  2.34708098 -0.69756054  2.45505881
H 1.62600754 0.70052164 3.40752941
H -0.57144458  1.42439608  2.83725441
H -1.36486701 -0.22803104  3.27649576
H -2.66797301  1.11196729  1.41043769
H -2.09730749 -0.39036873  0.95139227
H -2.72237112  1.97756394 -0.99357606
H -2.24885279  0.31948282 -1.40612704
H -1.44359735  2.62881198 -2.67816633
H -0.17823362  2.67312959 -1.58401591
H  1.18952994 -0.3028001  -3.3741493 
H  1.73060471  0.89195854 -2.15029164
H  0.36129862 -0.23648608 -0.39321152
H -0.17999386 -1.40656694 -1.76547787
H  0.91837294 -3.41469547 -0.54129702
H  2.72374463 -3.27271952 -0.5450552 
H  1.69525985 -2.30437368  0.41692552
