30

C  1.02434675 -1.08403132  3.387673  
O -0.03399873 -0.82339723  2.46144164
C -0.15496975  0.57498498  2.03875023
C -1.44357662  0.72455656  1.24112454
O -1.05031017  1.33443137 -0.00393008
C -2.01587641  1.2964345  -1.04691269
C -1.31177433  1.8947895  -2.2918926 
O -0.51145705  0.93530326 -2.98730831
C  0.713507    0.59287783 -2.31678119
C  0.62692665 -0.83597848 -1.6817024 
O  1.78996828 -1.01498918 -1.03369496
C  1.83831034 -2.212296   -0.26224727
H  0.83676255 -0.51939105  4.29087282
H  1.05531382 -2.15449359  3.57081228
H  1.97088812 -0.64640028  2.88840753
H 0.74370587 0.81607386 1.41928413
H -0.31274544  1.22914067  2.86213432
H -2.10321885  1.38161308  1.8384066 
H -1.82312998 -0.28663461  1.02006881
H -2.88181279  1.93165112 -0.89677629
H -2.36659454  0.26057283 -1.29284324
H -1.98510023  2.19269412 -3.08228454
H -0.78745494  2.73470874 -1.88032409
H  1.49289133  0.49702023 -3.14321223
H  0.84554272  1.40894263 -1.52442702
H -0.22144353 -0.81649441 -1.01101868
H  0.37765162 -1.55187242 -2.59601119
H  1.81112418 -3.12024789 -0.90140041
H  2.85331126 -2.17833084  0.35634802
H  1.08184239 -2.36953254  0.5253303 
