30

C -1.093032    0.53474523  5.70504814
O -1.25732182 -0.03544777  4.40448613
C -0.76939976  0.88276727  3.36965232
C -1.15214445  0.15009521  2.03664313
O -0.57613906  0.94153566  1.01369739
C -0.8516879   0.45370575 -0.29663128
C -0.32237573  1.4688522  -1.30017757
O -0.58552847  1.08817326 -2.60009321
C  0.55979272  0.55274198 -3.36430602
C  0.88779924 -0.82681817 -3.00719328
O  1.87873866 -1.20973454 -3.89806658
C  2.32973651 -2.5597892  -3.85291304
H -1.66972807  1.52286264  5.68826731
H -1.42738659 -0.20204864  6.50943068
H -0.08571777  0.81820287  5.89841279
H 0.26298699 1.00879528 3.43291233
H -1.22398244  1.92921543  3.44761249
H -2.26648644  0.09388725  1.9099444 
H -0.72418204 -0.95126129  2.09706819
H -1.97631559  0.24369787 -0.38050046
H -0.36982384 -0.49894408 -0.33994708
H -0.77946481  2.50105931 -0.98134195
H  0.78158685  1.68324849 -1.12758239
H  0.25091834  0.62710294 -4.42026706
H  1.33653585  1.22370006 -3.25135028
H  1.32189202 -1.01450988 -1.99807253
H -0.08253502 -1.43075106 -3.07551959
H  1.54677173 -3.23122261 -4.23749651
H  3.15732148 -2.65037902 -4.47486118
H  2.60193172 -2.82086037 -2.78408937
