30

C  0.38460996 -0.8624439   4.11820753
O -0.56820267 -0.17284179  3.30389634
C -0.28943784  0.00646439  1.98458265
C -1.41739667  0.76939076  1.28604269
O -1.12135375  0.80592659 -0.07929246
C -2.06613984  1.56347826 -0.82703307
C -1.52271167  1.76130711 -2.29096793
O -0.76543666  0.66209266 -2.73907261
C  0.51127291  0.58889223 -2.38623207
C  0.85870696 -0.79860725 -1.86267046
O  2.25611852 -0.86955703 -1.56747146
C  2.66386775 -2.14322265 -0.91402959
H  1.32584673 -0.29356518  4.28605945
H -0.14433785 -0.89482231  5.05853103
H  0.56806813 -1.87524838  3.65407539
H -0.23409613 -0.87605997  1.36077385
H 0.55932999 0.6834097  1.97531396
H -1.4641911   1.66503697  1.6430572 
H -2.41255262  0.10808315  1.43973139
H -2.2914217   2.65145078 -0.46659741
H -2.99020884  1.11251014 -0.78815878
H -2.3776523   1.93346744 -2.91586679
H -0.917354    2.60053798 -2.4470456 
H  1.19901325  0.80116428 -3.30987352
H  0.79950832  1.22799173 -1.4798785 
H  0.26744119 -1.12809924 -1.00548005
H  0.620145   -1.60667676 -2.6909098 
H  2.61346236 -3.0014643  -1.60165193
H  3.7889871  -2.03244007 -0.77372322
H  2.2100682  -2.19209928  0.09773587
