30

C  0.63333574 -0.68167374  4.0222842 
O -0.44484156 -0.45377914  3.18187075
C -0.11668324  0.28014609  1.99982222
C -1.39579089  0.52329813  1.24419812
O -1.04224323  1.24021039  0.04297306
C -2.00844011  1.26869234 -0.99088117
C -1.38282155  1.94816613 -2.18673762
O -0.52725685  1.08346874 -2.92645267
C  0.71016209  0.64642309 -2.34929022
C  0.65159887 -0.7936335  -1.91294488
O  1.98236909 -1.09077926 -1.47476434
C  2.16243385 -2.38303892 -0.8800073 
H 1.16659592 0.26812143 4.35761966
H  0.15135389 -1.24200362  4.92533296
H  1.52152598 -1.25530477  3.62577195
H  0.51931758 -0.33575892  1.36944779
H 0.35361174 1.15569667 2.39290825
H -2.16706862  1.0628124   1.71815155
H -1.77971405 -0.52280417  1.04810114
H -2.86751789  1.87435033 -0.57122925
H -2.40554923  0.25208489 -1.23925767
H -2.11720442  2.30347937 -2.87140475
H -0.83059846  2.71440604 -1.85000549
H  1.43593558  0.80130458 -3.15250223
H  0.96022436  1.32578011 -1.49540558
H -0.05601978 -0.83804641 -1.09882536
H  0.52125079 -1.56433973 -2.74152882
H  1.898943   -3.18549652 -1.58533817
H  3.17042783 -2.27297642 -0.59377433
H  1.50099311 -2.40852668 -0.05108531
