30

C  0.56919933 -0.79374951  4.04480027
O -0.47629658 -0.56321007  3.15072745
C -0.16524108  0.24749919  2.06634585
C -1.44635168  0.48519177  1.21988223
O -1.04101879  1.19757688  0.07970808
C -1.99141594  1.20525606 -0.95853054
C -1.41318558  1.93582252 -2.19839722
O -0.59071782  1.09657947 -2.9339694 
C  0.71157507  0.76307502 -2.3635363 
C  0.7116451  -0.72933015 -1.88911992
O  2.0440993  -0.97222821 -1.52225934
C  2.28464158 -2.18812124 -0.88584433
H  1.08781173 -1.64624423  3.68854544
H 1.18013391 0.02735825 4.17956628
H  0.1179769  -1.10661924  5.04461161
H  0.54579861 -0.33994214  1.47734233
H 0.21773406 1.28843861 2.4313149 
H -2.18520721  1.04734513  1.79438329
H -1.80534504 -0.5290173   1.0771457 
H -2.86581557  1.7737197  -0.72232119
H -2.18135763  0.17380029 -1.25901457
H -2.25008297  2.1820503  -2.83226815
H -0.83096808  2.89502165 -1.84088756
H  1.3738192   0.92506742 -3.14518606
H  0.88876821  1.37772032 -1.54608599
H  0.05607768 -0.86892706 -1.14962508
H  0.43578167 -1.37713281 -2.76708796
H  2.10020511 -3.1236372  -1.53642107
H  3.26407197 -2.30099342 -0.5846505 
H  1.72006583 -2.27057323  0.02955981
