30

C  0.58525988 -0.63228852  4.1165687 
O -0.50798296 -0.47584216  3.17163265
C -0.07939734  0.35530071  2.0848414 
C -1.45503914  0.67527281  1.26681848
O -1.00618586  1.24551657  0.11103502
C -1.9741692   1.20596419 -0.99691289
C -1.3273698   1.91039366 -2.17140429
O -0.6050967   1.01747498 -2.9709017 
C  0.69086156  0.71581454 -2.3958239 
C  0.70862611 -0.77562517 -1.84578829
O  2.03496729 -1.09447878 -1.54308286
C  2.1911834  -2.39344475 -0.99804272
H 0.75663818 0.21618448 4.63287731
H  0.21822161 -1.53708175  4.77960701
H  1.40319152 -1.07947091  3.45833065
H  0.4958735  -0.35105984  1.48586586
H 0.33136563 1.33271608 2.41397405
H -2.14093038  1.19119303  1.97005904
H -1.87588995 -0.31605682  1.11613018
H -2.909016    1.73040334 -0.68083049
H -2.22211956  0.19265892 -1.23706776
H -2.16871784  2.36943339 -2.8975203 
H -0.75528982  2.74360949 -1.84385323
H  1.36392881  0.71447088 -3.13111083
H  0.97205501  1.30487231 -1.53558591
H  0.00654571 -0.93408181 -1.03111907
H  0.30373686 -1.58142628 -2.54865059
H  1.98378022 -3.30569611 -1.66493802
H  3.14741817 -2.57148479 -0.70504539
H  1.5238488  -2.44524236 -0.12587408
