30

C -1.45224765  0.57976235  5.71219135
O -1.12417113 -0.02080835  4.44518711
C -0.99536388  0.89322964  3.37172525
C -0.63380804  0.08445338  2.14923931
O -0.5611256   0.99075854  1.05603272
C -0.06878214  0.4190252  -0.17311081
C -0.09815687  1.56373006 -1.18399445
O -0.47947979  1.19621943 -2.52573832
C  0.56108902  0.67709352 -3.28819416
C  0.75089972 -0.82878902 -3.03636437
O  1.60553304 -1.33418615 -4.04992385
C  1.88827511 -2.69663661 -4.0139694 
H -2.26085666  1.26309902  5.68831343
H -1.68847737 -0.31201922  6.30675013
H -0.54609431  1.11980692  6.08648732
H -0.13849768  1.53657368  3.67654302
H -1.92781785  1.39909023  3.05940525
H -1.47897552 -0.62096963  2.01726917
H  0.39906146 -0.36501244  2.36727199
H -0.8551451  -0.42649267 -0.44520767
H  0.95105845 -0.06914373 -0.00752993
H -0.70591158  2.33649839 -0.83592736
H  0.89236683  2.10621522 -1.20384357
H  0.28515596  0.81686135 -4.38928219
H  1.54918099  1.24728551 -3.03530786
H  1.13204803 -1.03731433 -2.11271519
H -0.26187628 -1.32801273 -3.17662226
H  0.89454604 -3.33696606 -3.85865021
H  2.45630279 -2.9484661  -5.00764978
H  2.50999318 -2.98996562 -3.13649904
