30

C  0.55911861 -0.82241032  4.05701403
O -0.57058034 -0.24725267  3.29147131
C -0.25400452 -0.0053028   1.90200187
C -1.41056049  0.73299229  1.28714352
O -1.1389572   0.83712618 -0.07655621
C -2.06530383  1.58273465 -0.82976234
C -1.52799652  1.77848224 -2.3371415 
O -0.74700542  0.71757824 -2.80925514
C  0.57055595  0.61667703 -2.34817732
C  0.88731062 -0.89892579 -2.01731279
O  2.13883073 -0.87311795 -1.34516755
C  2.54595155 -2.12530815 -0.79748461
H  1.47900111 -0.28877699  3.96456162
H  0.33694558 -0.89919534  5.1631601 
H  0.76235156 -1.80365865  3.68842009
H -0.15195698 -0.92445278  1.43725947
H 0.61563941 0.52073168 1.60352392
H -1.50093323  1.71308424  1.738668  
H -2.42691454  0.16537931  1.46803404
H -2.22773945  2.62887606 -0.42934401
H -3.08374127  1.2879058  -1.0962296 
H -2.42573     1.95088301 -2.91854785
H -0.89634651  2.75825804 -2.26634796
H  1.39748382  0.96526144 -3.08280921
H  0.71961285  1.22718873 -1.45170253
H  0.17036307 -1.10229416 -1.27788101
H  0.79952449 -1.58051348 -2.880065  
H  2.56715838 -2.96594913 -1.57982175
H  3.45478787 -1.8491285  -0.43879549
H  1.8071555  -2.23639886 -0.02497307
