30

C  0.57570883 -0.6318056   4.10471542
O -0.47009167 -0.34250742  3.22458593
C -0.07701417  0.32242236  2.07911758
C -1.40077761  0.45953945  1.23438491
O -0.99415146  1.09402677  0.02852194
C -2.03527339  1.2106154  -0.98089681
C -1.39518585  1.97689459 -2.19534555
O -0.49932869  1.121052   -2.93459482
C  0.71466355  0.70715952 -2.38765461
C  0.65107813 -0.80522297 -1.89686119
O  1.97191387 -1.09853177 -1.50856038
C  2.11529714 -2.36891989 -0.96315349
H 1.22651359 0.31469552 4.37066754
H  0.23019377 -1.21955517  4.92927633
H  1.30037427 -1.29468789  3.54262947
H  0.68479    -0.14367803  1.45329685
H 0.23565999 1.36041109 2.30831768
H -2.11184478  1.08147054  1.77219751
H -1.71747282 -0.55762591  1.00547017
H -2.81896956  1.84045894 -0.59106739
H -2.32776714  0.24969712 -1.30425345
H -2.14756981  2.31135862 -2.93759335
H -0.7864805   2.90506569 -1.79473734
H  1.56008293  0.82714897 -3.04781336
H  1.05844429  1.2877849  -1.40327725
H  0.04331393 -0.78768705 -0.99545452
H  0.22769346 -1.40149541 -2.6259156 
H  1.99205756 -3.10748954 -1.74150382
H  3.09989147 -2.50095498 -0.45463607
H  1.46404151 -2.53511324 -0.04265748
