30

C -1.75442518 -1.07944657  5.18837055
O -1.14114278 -0.21904918  4.18977568
C -1.67481096 -0.44130671  2.90349356
C -0.90721571  0.49806542  1.91905806
O -1.47514351  0.35951794  0.67471644
C -0.9049133   1.09639008 -0.34951689
C -1.48422987  0.64600576 -1.70514558
O -0.70436254 -0.2600972  -2.42713005
C  0.38069343  0.29804151 -3.13620825
C  1.64304258 -0.28167206 -2.59106063
O  2.73456338  0.23919243 -3.29067322
C  3.99275227 -0.43665914 -2.96989982
H -1.72295021 -2.18675469  5.03564079
H -1.254022   -0.84841734  6.12360751
H -2.8470134  -0.97238994  5.14048461
H -2.74189074 -0.25487259  2.80618541
H -1.49778463 -1.50111557  2.54635384
H 0.14646105 0.39921659 1.91102763
H -1.07401437  1.52031738  2.33846952
H  0.24262172  1.02752238 -0.36306282
H -0.9631963   2.17573536 -0.10967947
H -2.42238877  0.14829293 -1.47751853
H -1.75451294  1.56924634 -2.2427991 
H  0.33075933 -0.0235582  -4.17846206
H  0.40626424  1.41785034 -3.04963403
H  1.87908328 -0.07670863 -1.44935197
H  1.59127508 -1.43572005 -2.74662353
H  3.96789491 -1.42603872 -3.27654264
H  4.697625    0.02214227 -3.57728943
H  4.30607098 -0.21669603 -1.88979217
