30

C  0.30127708 -0.24725676  4.38536681
O -0.32444505 -0.75483012  3.17861687
C  0.03351913 -0.03738415  2.02543726
C -1.20213769  0.38433441  1.33372332
O -0.88097122  1.01813657  0.08863048
C -1.87690393  1.23134885 -0.84053463
C -1.28489399  2.03044782 -2.07188999
O -0.62557465  1.16410361 -2.88746352
C  0.678499    0.71407773 -2.55159401
C  0.62503354 -0.76232542 -2.04753503
O  2.00569468 -1.15964709 -1.82804142
C  2.20457987 -2.43164344 -1.1563321 
H 0.09029769 0.83300744 4.67790125
H -0.04284432 -0.93831006  5.10790908
H  1.375991   -0.24290554  4.31547344
H  0.57118527 -0.78699331  1.40319162
H 0.53484987 0.83896918 2.0465741 
H -1.86660568  1.0396206   1.86411868
H -1.91028873 -0.48354741  1.03459162
H -2.74987992  1.80407146 -0.31314164
H -2.14909845  0.26193201 -1.28694168
H -2.14940025  2.50716423 -2.67958223
H -0.63766774  2.92961678 -1.76336878
H  1.44161058  0.54464687 -3.45626924
H  1.0965726   1.40793382 -1.73512961
H  0.08484056 -1.00684187 -1.21216313
H  0.13736024 -1.36762874 -2.92110341
H  2.0131312  -3.37008212 -1.79335988
H  3.28209056 -2.55929601 -1.08539904
H  1.70494748 -2.60673277 -0.1729607 
