30

C  1.05547179 -1.01141077  3.37198857
O  0.05299415 -0.81336062  2.32137177
C -0.09829062  0.46935306  1.99320979
C -1.41380496  0.64828252  1.18339404
O -1.05918766  1.35042584 -0.00722848
C -2.02102795  1.3235816  -1.05072925
C -1.32357575  1.89190238 -2.29186914
O -0.50435249  0.97500446 -2.95843877
C  0.72350419  0.58145941 -2.31392736
C  0.60983752 -0.84838221 -1.73674214
O  1.77551353 -1.0509744  -0.97827248
C  1.76584785 -2.19881474 -0.17032115
H  0.67092371 -0.56831876  4.39241111
H  1.02118168 -2.1449151   3.7210447 
H  2.0557735  -0.67640437  3.11255161
H 0.72770287 0.92057203 1.3714312 
H -0.09037004  1.06339255  2.90409411
H -2.18903592  1.03911592  1.71309776
H -1.69925356 -0.37692708  0.86949704
H -2.88910937  2.05324487 -0.90169847
H -2.3240659   0.24088096 -1.2170325 
H -2.1483168   2.09273537 -2.98943126
H -0.67110358  2.73501336 -2.07352051
H  1.47100424  0.585522   -3.10250089
H  0.8699522   1.27714338 -1.50160374
H -0.25488666 -0.85319906 -1.14095619
H  0.46479521 -1.66567354 -2.54436591
H  1.62710173 -3.14541382 -0.76493817
H  2.68369806 -2.27030836  0.43204961
H  0.88676696 -2.10900618  0.51162526
