30

C -1.49953343  0.64951922  5.6892697 
O -1.17233688 -0.01354899  4.49431333
C -1.03484152  0.89291277  3.39871071
C -0.59497654  0.08711295  2.1829546 
O -0.4895468   1.00431486  1.1594288 
C -0.19748372  0.4158237  -0.09431824
C -0.08777894  1.54596487 -1.16663996
O -0.47199738  1.11544876 -2.43583284
C  0.5784791   0.63863321 -3.32603154
C  0.840528   -0.8298043  -3.08137568
O  1.62053064 -1.31337029 -4.18322693
C  1.86623053 -2.68235708 -4.16954541
H -2.35131096  1.26499174  5.47991824
H -1.56565427 -0.15390763  6.39896508
H -0.6414065   1.270536    6.01654147
H -0.28653252  1.57493969  3.62604378
H -1.988368    1.48180651  3.22509278
H -1.36311377 -0.63024256  1.87365992
H  0.31581866 -0.4013636   2.48253494
H -0.97833687 -0.21387953 -0.3275448 
H  0.75150955 -0.09565382 -0.04048542
H -0.77847411  2.3809787  -0.83291928
H  0.94098295  1.91198689 -1.2370347 
H  0.29254701  0.67717569 -4.46457432
H  1.43781521  1.21086671 -3.23608706
H  1.2708658  -1.0138799  -2.04793932
H -0.08483125 -1.34371352 -3.03657924
H  0.95689984 -3.23211679 -4.25757701
H  2.56272492 -2.89574858 -4.89282858
H  2.2984511  -3.07684497 -3.30092467
