30

C -0.59436403  0.14986468  5.41548447
O -1.14307427 -0.11048794  4.14511563
C -0.63033484  0.68017716  3.08112038
C -1.31164636  0.21084033  1.83539145
O -0.80480477  1.02899093  0.75631454
C -1.35855489  0.69931757 -0.51993844
C -0.58653806  1.63132854 -1.48845318
O -0.65680345  1.13741741 -2.81770445
C  0.57031877  0.59543435 -3.29842703
C  0.88502884 -0.80236825 -2.74858857
O  1.9465675  -1.27645421 -3.46954937
C  2.53080486 -2.48573104 -3.06593081
H -0.81949741  1.16444072  5.73223943
H -1.0649617  -0.62448171  6.07248642
H 0.59171465 0.05141618 5.51031978
H 0.41402928 0.54796541 3.00465944
H -0.81321575  1.7542704   3.15850017
H -2.42369545  0.27264366  1.87071489
H -1.29216682 -0.85121112  1.70610646
H -2.42521069  0.85997086 -0.68973437
H -1.04760517 -0.285541   -0.85470707
H -1.19584927  2.58843774 -1.36842604
H  0.41796153  1.79583772 -1.11685906
H  0.27427073  0.51646334 -4.39011855
H  1.38847785  1.23395531 -3.2066571 
H  1.13691709 -0.81172198 -1.6559343 
H -0.01619604 -1.52343241 -2.84604382
H  1.7356546  -3.22610823 -3.09039652
H  3.29894742 -2.72106849 -3.69365243
H  2.81766856 -2.32992195 -2.02700758
