30

C 0.93141461 0.60853985 2.19255354
O -0.07082714 -0.09206919  3.00970096
C -0.95275821 -0.9748878   2.24477756
C -1.87929337 -0.29275416  1.25655911
O -1.18821863  0.53696655  0.38146581
C -1.9257892   1.03845479 -0.741354  
C -1.1108882   2.00634206 -1.52914336
O -0.10572451  1.48479221 -2.34561839
C  1.02503295  1.00592365 -1.72082892
C  0.99571536 -0.49568231 -1.7045847 
O  2.02776804 -0.86760705 -0.75394499
C  2.11636089 -2.2564566  -0.55569996
H 0.519548   1.55562    1.76682088
H 1.78036475 0.7410088  2.86155364
H  1.37459312 -0.07737341  1.45485292
H -1.40082973 -1.48978203  3.00000088
H -0.30584953 -1.75366596  1.66437331
H -2.67021079  0.26673525  1.7678878 
H -2.43119319 -1.03530195  0.72536595
H -2.87289342  1.49412632 -0.31965854
H -2.28459145  0.34385169 -1.46398852
H -1.84157545  2.56506515 -2.19987344
H -0.73438403  2.82058449 -0.8823169 
H  1.82705804  1.47187864 -2.33598309
H  1.17533951  1.39222633 -0.76662687
H -0.07043251 -0.80749667 -1.41536964
H  1.29043544 -0.9860729  -2.65889204
H  2.22458297 -2.73963328 -1.5804918 
H  2.95737516 -2.49619829  0.07364808
H  1.15134517 -2.70941408 -0.07136817
