30

C  0.47501559 -0.76006338  4.0708287 
O -0.55795882 -0.31299434  3.27319368
C -0.13975394  0.08885666  1.99740858
C -1.40800602  0.64415416  1.27806779
O -1.00228236  1.00983006 -0.06642406
C -2.06788261  1.4379712  -0.90447096
C -1.49981303  1.8387982  -2.25747109
O -0.66869306  0.85544638 -2.85525269
C  0.62736097  0.64327511 -2.40383681
C  0.77426133 -0.80541258 -1.87964324
O  2.13315128 -0.98073175 -1.5175358 
C  2.39341845 -2.19296177 -0.81551469
H  1.23365043 -0.04974837  4.15364088
H  0.04549832 -0.96002384  5.06020882
H  0.98062224 -1.71144329  3.72799631
H  0.2990392  -0.63123053  1.39398513
H 0.56395335 0.90216091 1.97560906
H -1.67212115  1.55304879  1.83165884
H -2.15244845 -0.28683865  1.21831245
H -2.62553494  2.29010168 -0.46047319
H -2.79162794  0.50505561 -0.85412008
H -2.29433882  1.96274712 -3.00080276
H -0.96939027  2.78080051 -2.24406127
H  1.23005069  0.74076716 -3.25421991
H  0.96081061  1.35314799 -1.64288529
H  0.09851673 -0.90773103 -0.99427375
H  0.51592056 -1.56283169 -2.65327881
H  2.27853187 -3.00694037 -1.43590083
H  3.51843038 -2.14262162 -0.62685018
H  1.82717665 -2.39031637  0.04593606
