30

C  0.98802  -0.778253  3.661775
O -0.196683 -0.541574  2.935427
C -0.06323   0.391653  1.88063 
C -1.411076  0.437717  1.164801
O -1.234241  1.275497  0.043151
C -2.089158  1.295849 -1.080752
C -1.327112  1.975147 -2.225901
O -0.430907  1.108123 -2.886259
C  0.732399  0.716804 -2.175307
C  0.626182 -0.756208 -1.767427
O  1.691027 -1.010196 -0.869327
C  1.776104 -2.344402 -0.419214
H 1.357495 0.14153  4.136745
H  0.74722  -1.509882  4.435615
H  1.778976 -1.183826  3.014884
H 0.71913  0.079296 1.172529
H 0.194814 1.390349 2.266404
H -2.188269  0.832257  1.838112
H -1.699591 -0.581467  0.862097
H -3.005541  1.868907 -0.861214
H -2.380379  0.276589 -1.378674
H -2.04593   2.301633 -2.98619 
H -0.800401  2.856325 -1.829766
H  1.597126  0.852324 -2.838182
H  0.879357  1.332215 -1.27937 
H -0.344233 -0.942921 -1.283788
H  0.69796  -1.403639 -2.655177
H  1.955866 -3.036467 -1.253786
H  2.616728 -2.393481  0.275829
H  0.858354 -2.649897  0.102358
