30

C -1.434227  0.623427  5.728506
O -1.160056  0.021405  4.483207
C -0.979855  0.927498  3.413581
C -0.705591  0.086313  2.170503
O -0.514401  0.992259  1.100727
C -0.259872  0.393505 -0.155942
C -0.133606  1.54147  -1.168562
O -0.453918  1.128842 -2.479035
C  0.583239  0.625733 -3.292995
C  0.770227 -0.885652 -3.112161
O  1.694817 -1.288899 -4.102277
C  1.96987  -2.671761 -4.131063
H -2.361609  1.21223   5.692672
H -1.549626 -0.184467  6.453588
H -0.611155  1.279117  6.045832
H -0.129003  1.600672  3.603718
H -1.881169  1.541049  3.257875
H -1.559218 -0.580778  1.973864
H  0.191565 -0.532458  2.328237
H -1.095166 -0.260545 -0.452223
H  0.659707 -0.211718 -0.117829
H -0.852892  2.320686 -0.89009 
H  0.875957  1.977227 -1.1274  
H  0.290291  0.817133 -4.331828
H  1.532833  1.144848 -3.095377
H  1.153924 -1.115744 -2.105243
H -0.197083 -1.396712 -3.239951
H  1.061149 -3.255994 -4.33286 
H  2.688838 -2.835885 -4.935929
H  2.406037 -3.012802 -3.181526
