30

C  0.448786 -0.711315  4.228984
O -0.569682 -0.373898  3.313823
C -0.118343  0.258204  2.133483
C -1.355441  0.535507  1.284149
O -0.898753  1.145209  0.09343 
C -1.878277  1.28758  -0.916462
C -1.370255  1.898616 -2.222285
O -0.633217  0.993437 -3.012663
C  0.667771  0.654094 -2.561487
C  0.679258 -0.755934 -1.964152
O  2.034037 -1.060391 -1.687832
C  2.236986 -2.274385 -1.002691
H 0.990937 0.18139  4.571022
H -0.036336 -1.186544  5.083682
H  1.168423 -1.413594  3.785007
H  0.57425  -0.392934  1.576226
H 0.399955 1.202536 2.362145
H -2.046991  1.19848   1.826799
H -1.875812 -0.410404  1.067728
H -2.695831  1.931797 -0.545945
H -2.316083  0.301317 -1.148643
H -2.245411  2.1802   -2.817187
H -0.777045  2.801975 -2.00862 
H  1.337941  0.675555 -3.430398
H  1.032317  1.375166 -1.818281
H  0.078862 -0.789401 -1.044016
H  0.252496 -1.470745 -2.685392
H  1.861224 -3.130445 -1.581018
H  3.313725 -2.384057 -0.858238
H  1.740517 -2.267014 -0.021148
