30

C  0.591797 -0.678837  4.096239
O -0.473383 -0.392894  3.217591
C -0.103181  0.31353   2.050878
C -1.377056  0.504739  1.23047 
O -0.991487  1.168167  0.043807
C -1.982309  1.250363 -0.96692 
C -1.351648  1.930743 -2.187945
O -0.555332  1.057873 -2.956407
C  0.703832  0.68617  -2.420256
C  0.664201 -0.759272 -1.916584
O  1.972685 -1.06298  -1.469785
C  2.116847 -2.339866 -0.891727
H 1.06996  0.242107 4.458333
H  0.16837  -1.220971  4.94392 
H  1.353324 -1.305122  3.610352
H  0.634413 -0.254587  1.462175
H 0.332468 1.293303 2.302094
H -2.112068  1.078148  1.815442
H -1.815466 -0.479849  1.002712
H -2.839174  1.848306 -0.617078
H -2.342271  0.24697  -1.240409
H -2.15192   2.275627 -2.853022
H -0.768094  2.800697 -1.850473
H  1.446168  0.762137 -3.22537 
H  1.002708  1.354434 -1.602707
H -0.060138 -0.859471 -1.095564
H  0.35899  -1.432504 -2.733205
H  1.864486 -3.135484 -1.607106
H  3.163411 -2.441102 -0.597273
H  1.479879e+00 -2.450377e+00 -2.162000e-03
