30

C -0.40951  -0.403258  4.136538
O  0.696992 -0.450393  3.264022
C 0.662035 0.248894 2.034355
C -0.736387  0.535014  1.4824  
O -0.522553  1.134405  0.217229
C -1.687471  1.333528 -0.566496
C -1.262328  1.985113 -1.888206
O -0.751759  1.06026  -2.819802
C  0.560944  0.571203 -2.599451
C  0.521362 -0.863559 -2.065816
O  1.864609 -1.306543 -2.021125
C  2.053325 -2.563332 -1.412226
H -1.289738 -0.909953  3.718125
H -0.1025   -0.930725  5.042997
H -0.683997  0.626663  4.40554 
H  1.189398 -0.379324  1.303025
H 1.225286 1.191597 2.121528
H -1.299306  1.218341  2.137408
H -1.30959  -0.399328  1.373259
H -2.392263  1.998285 -0.041403
H -2.190013  0.374823 -0.765145
H -2.144838  2.434625 -2.358456
H -0.528358  2.777262 -1.676379
H  1.083014  0.574467 -3.564902
H  1.11232   1.212163 -1.899401
H  0.06987  -0.889416 -1.063688
H -0.082378 -1.495785 -2.736116
H  1.514065 -3.355845 -1.950423
H  3.124115 -2.774454 -1.44151 
H  1.715665 -2.554728 -0.365861
