30

C  1.264778 -0.572205  2.859709
O  0.085644 -0.466557  2.093644
C -0.712557  0.662206  2.391379
C -1.773782  0.798445  1.303032
O -1.139623  1.280608  0.133908
C -1.935215  1.26806  -1.038194
C -1.093151  1.840055 -2.186753
O -0.301652  0.869817 -2.830011
C  0.88419   0.447742 -2.17764 
C  0.662673 -0.845081 -1.382933
O  1.931914 -1.470329 -1.278872
C  1.917454 -2.702762 -0.598082
H  1.040188 -0.648747  3.933108
H  1.77432  -1.481436  2.535667
H 1.925353 0.290422 2.696084
H -0.097075  1.575081  2.412122
H -1.202026  0.545538  3.372171
H -2.557923  1.497498  1.636754
H -2.234188 -0.183819  1.115256
H -2.832836  1.892064 -0.896067
H -2.25568   0.243776 -1.281587
H -1.767857  2.237062 -2.954744
H -0.472903  2.662392 -1.798659
H  1.621077  0.243399 -2.964463
H  1.277035  1.239869 -1.525563
H  0.254406 -0.637329 -0.384825
H -0.044799 -1.489677 -1.928693
H  1.285616 -3.439664 -1.114953
H  2.946299 -3.068367 -0.572546
H  1.550329 -2.588062  0.431774
