30

C  0.686455 -0.777931  3.958168
O -0.428182 -0.418179  3.171885
C -0.124266  0.383245  2.054844
C -1.403959  0.549198  1.228006
O -1.017201  1.209414  0.038494
C -1.996116  1.260273 -0.985232
C -1.355575  1.919945 -2.212531
O -0.540665  1.037805 -2.950536
C  0.707327  0.678391 -2.380636
C  0.660464 -0.761601 -1.862238
O  1.94816  -1.04384  -1.346361
C  2.08081  -2.31594  -0.754875
H 1.190395 0.108883 4.36706 
H  0.311043 -1.389299  4.780916
H  1.413557 -1.361359  3.375987
H  0.55654  -0.120886  1.347356
H 0.291684 1.357246 2.346566
H -2.162855  1.133852  1.772478
H -1.820286 -0.445867  1.009538
H -2.862935  1.857395 -0.658902
H -2.34357   0.248067 -1.241855
H -2.149495  2.242653 -2.89603 
H -0.784486  2.802399 -1.886338
H  1.469097  0.749972 -3.167828
H  0.98282   1.356073 -1.562792
H -0.103192 -0.86088  -1.077446
H  0.404306 -1.448452 -2.68434 
H  1.878369 -3.11833  -1.47849 
H  3.111888 -2.399902 -0.405467
H  1.399879 -2.432344  0.10062 
