30

C  0.89189  -0.836668  3.70729 
O -0.252706 -0.553642  2.934806
C -0.050068  0.398271  1.908123
C -1.374543  0.509857  1.143324
O -1.095768  1.332771  0.037187
C -2.037329  1.327127 -1.022785
C -1.358859  1.950841 -2.249412
O -0.503361  1.053725 -2.923349
C  0.701528  0.691412 -2.267082
C  0.622103 -0.763632 -1.792859
O  1.716501 -0.971892 -0.919114
C  1.833771 -2.288444 -0.426628
H 1.263072 0.062931 4.218278
H  0.598469 -1.577788  4.453466
H  1.700452 -1.249283  3.08711 
H 0.747862 0.076999 1.221444
H 0.225453 1.378659 2.32798 
H -2.151032  0.793545  1.867363
H -1.649065 -0.502907  0.796001
H -2.92676   1.918873 -0.753381
H -2.356678  0.299889 -1.253912
H -2.128198  2.236957 -2.97571 
H -0.811952  2.852379 -1.934407
H  1.524687  0.799562 -2.985536
H  0.900683  1.342919 -1.407797
H -0.33098  -0.936501 -1.271099
H  0.670797 -1.448704 -2.653648
H  2.000238 -3.006371 -1.241998
H  2.694152 -2.302154  0.245442
H  0.935651 -2.588731  0.130924
