30

C  1.373942 -0.177228  2.940888
O 0.427503 0.04873  1.923058
C -0.905244  0.141727  2.373604
C -1.83352   0.622307  1.23528 
O -1.07453   1.162734  0.178613
C -1.806215  1.484556 -0.9889  
C -0.80642   1.887247 -2.084813
O -0.486029  0.800529 -2.929093
C  0.714143  0.096443 -2.678621
C  0.651195 -0.753452 -1.40477 
O  1.701867 -1.700938 -1.511007
C  1.842015 -2.529883 -0.380908
H  1.204849 -1.140875  3.442956
H  2.355194 -0.189366  2.463062
H 1.348814 0.622543 3.694876
H -0.962702  0.855699  3.213532
H -1.261566 -0.83469   2.743105
H -2.536631  1.372253  1.634886
H -2.430476 -0.230104  0.866753
H -2.497149  2.319531 -0.786948
H -2.394803  0.619692 -1.331281
H -1.269439  2.653923 -2.719944
H  0.093588  2.312587 -1.620117
H  0.854288 -0.570049 -3.536954
H  1.569875  0.787268 -2.627875
H  0.783986 -0.134593 -0.508216
H -0.325839 -1.258192 -1.342834
H  0.944011 -3.143939 -0.219779
H  2.695943 -3.185345 -0.565447
H  2.02936  -1.939114  0.526916
