30

C  0.847331 -0.822889  3.730311
O -0.266434 -0.534357  2.916739
C -0.018831  0.403393  1.888051
C -1.318897  0.533104  1.064403
O -1.099921  1.271157  0.076934
C -2.042843  1.295416 -0.994521
C -1.371885  1.944384 -2.20982 
O -0.5171    1.063252 -2.903948
C  0.695676  0.696563 -2.263934
C  0.629848 -0.766796 -1.813853
O  1.727667 -0.977709 -0.945841
C  1.844193 -2.294829 -0.453807
H 1.212578 0.077469 4.244528
H  0.520026 -1.552403  4.473945
H  1.671626 -1.251917  3.142523
H 0.794046 0.063215 1.227449
H 0.260617 1.383897 2.30536 
H -2.114839  0.901721  1.760978
H -1.625149 -0.511633  0.803628
H -2.929131  1.878183 -0.69973 
H -2.358556  0.269544 -1.233983
H -2.145633  2.241841 -2.926795
H -0.827006  2.841682 -1.879445
H  1.511785  0.823256 -2.987211
H  0.897749  1.334415 -1.394987
H -0.320778 -0.956715 -1.29339 
H  0.683111 -1.437558 -2.685573
H  2.00584  -3.012929 -1.269933
H  2.707267 -2.31001   0.214646
H  0.947652 -2.592747  0.107296
