30

C -0.794396  0.337366  5.567469
O -1.210117 -0.046896  4.275984
C -0.69575   0.747617  3.226486
C -1.26484   0.179691  1.929681
O -0.740146  0.966079  0.876783
C -1.161681  0.591962 -0.420854
C -0.498156  1.573893 -1.394351
O -0.615867  1.102929 -2.724032
C  0.54319   0.603579 -3.353501
C  0.902197 -0.80765  -2.872048
O  1.967738 -1.243407 -3.693014
C  2.442278 -2.540959 -3.4107  
H -1.113362  1.362709  5.801854
H -1.262488 -0.353957  6.270809
H 0.297982 0.274402 5.671467
H 0.404677 0.705854 3.20064 
H -1.001502  1.799715  3.339387
H -2.364471  0.23035   1.949192
H -0.965962 -0.874514  1.820312
H -2.257396  0.642496 -0.510808
H -0.844809 -0.437565 -0.650966
H -1.010213  2.543308 -1.34009 
H  0.552868  1.714458 -1.10822 
H  0.319405  0.563115 -4.425137
H  1.401277  1.274794 -3.198489
H  1.208235 -0.791881 -1.813936
H  0.027836 -1.470107 -2.972732
H  1.653123 -3.293811 -3.546378
H  3.254653 -2.741677 -4.111751
H  2.825707 -2.611894 -2.383037
