30

C  0.615211 -0.661211  4.046497
O -0.51509  -0.416853  3.233215
C -0.135459  0.288749  2.064525
C -1.399127  0.493085  1.232756
O -1.000173  1.160968  0.050605
C -1.982702  1.250683 -0.967148
C -1.340928  1.936134 -2.179538
O -0.539483  1.065801 -2.945587
C  0.714695  0.689778 -2.400904
C  0.668965 -0.757849 -1.904011
O  1.973883 -1.066105 -1.449789
C  2.11175  -2.345976 -0.876876
H 1.08648  0.279033 4.363086
H  0.269074 -1.203902  4.928861
H  1.35961  -1.271156  3.516785
H  0.600154 -0.286917  1.481588
H 0.307328 1.263424 2.320601
H -2.132096  1.091359  1.795671
H -1.850159 -0.483645  0.999388
H -2.840982  1.848808 -0.620763
H -2.342936  0.249721 -1.249029
H -2.135109  2.285483 -2.849566
H -0.7589    2.803524 -1.832962
H  1.46363   0.768117 -3.199654
H  1.007943  1.354017 -1.578044
H -0.060989 -0.860447 -1.088294
H  0.368016 -1.426773 -2.725726
H  1.86201  -3.137693 -1.597468
H  3.156269 -2.450912 -0.576501
H  1.469124 -2.459246  0.008304
