30

C -1.261258  0.632527  5.746098
O -1.225371  0.033442  4.470088
C -0.901368  0.912017  3.411512
C -0.923704  0.080884  2.13214 
O -0.588086  0.956583  1.072639
C -0.567976  0.365651 -0.212395
C -0.233088  1.491098 -1.198692
O -0.486238  1.098761 -2.532392
C  0.592524  0.626656 -3.308988
C  0.843858 -0.871362 -3.096984
O  1.80874  -1.24792  -4.058891
C  2.153573 -2.6153   -4.05134 
H -2.017519  1.428693  5.793131
H -1.521582 -0.152535  6.458596
H -0.284033  1.056694  6.016644
H 0.098614 1.351553 3.553429
H -1.634248  1.730885  3.337718
H -1.925339 -0.351412  1.983651
H -0.196189 -0.742273  2.208279
H -1.550134 -0.062504 -0.465643
H  0.183637 -0.438527 -0.257988
H -0.887377  2.344159 -0.980573
H  0.810464  1.810896 -1.06804 
H  0.317009  0.787606 -4.357514
H  1.513013  1.190996 -3.09761 
H  1.21477  -1.065683 -2.0778  
H -0.095528 -1.429158 -3.237168
H  1.280145 -3.249081 -4.259476
H  2.897681 -2.759548 -4.836944
H  2.58502  -2.913799 -3.085466
