30

C  0.53917  -0.746384  4.112918
O -0.520301 -0.452923  3.229326
C -0.145015  0.265117  2.071559
C -1.408208  0.434687  1.232115
O -1.022926  1.122179  0.056826
C -2.006652  1.196558 -0.961085
C -1.388649  1.926932 -2.159475
O -0.560198  1.098988 -2.943378
C  0.709471  0.7595   -2.411024
C  0.717321 -0.694132 -1.929837
O  2.042105 -0.969785 -1.513674
C  2.228303 -2.245771 -0.946024
H  1.371831 -1.2362    3.589142
H 0.918836 0.164869 4.596846
H  0.143388 -1.420073  4.875113
H  0.611951 -0.287855  1.493017
H 0.268575 1.252094 2.331745
H -2.162972  1.006182  1.79401 
H -1.826891 -0.554316  0.990326
H -2.885653  1.757675 -0.604913
H -2.331337  0.189039 -1.262191
H -2.194646  2.263667 -2.821856
H -0.834926  2.805698 -1.79563 
H  1.449307  0.871235 -3.214241
H  0.986106  1.425048 -1.583377
H  0.012673 -0.826763 -1.096437
H  0.41391  -1.362054 -2.75148 
H  1.977714 -3.043549 -1.659629
H  3.283325 -2.324664 -0.675906
H  1.614397 -2.374999 -0.042766
