30

C  0.584937 -0.681407  4.100865
O -0.484364 -0.39234   3.228165
C -0.119454  0.297623  2.055112
C -1.384824  0.502191  1.233221
O -0.993715  1.161846  0.04417 
C -1.984219  1.247059 -0.96616 
C -1.353067  1.92934  -2.185892
O -0.557604  1.057279 -2.956072
C  0.703259  0.687048 -2.422977
C  0.666251 -0.757248 -1.915813
O  1.978588 -1.061665 -1.48081 
C  2.124803 -2.334019 -0.893452
H 1.075222 0.237941 4.450462
H  0.162983 -1.211663  4.956697
H  1.336041 -1.319451  3.614125
H  0.645343 -0.245255  1.471179
H 0.377096 1.260163 2.271299
H -2.110829  1.106111  1.799266
H -1.841561 -0.474278  1.009759
H -2.840468  1.845326 -0.615013
H -2.345456  0.24474  -1.241906
H -2.153223  2.27617  -2.850121
H -0.768771  2.798159 -1.846821
H  1.442887  0.761318 -3.230728
H  1.004533  1.357469 -1.608038
H -0.050245 -0.854742 -1.087667
H  0.352485 -1.431784 -2.728109
H  1.861375 -3.134896 -1.598912
H  3.174308 -2.436595 -0.610125
H  1.497697 -2.43444   0.004316
