30

C  1.37543  -0.186093  2.933733
O 0.413394 0.013033 1.925095
C -0.904898  0.19424   2.401187
C -1.833674  0.607412  1.240149
O -1.081566  1.171364  0.190324
C -1.811051  1.460501 -0.987289
C -0.813891  1.895096 -2.073822
O -0.463174  0.825275 -2.92716 
C  0.738562  0.12973  -2.660541
C  0.648148 -0.757514 -1.414112
O  1.71382  -1.688642 -1.514884
C  1.828174 -2.550639 -0.406802
H  1.175574 -1.103318  3.50672 
H  2.34198  -0.278755  2.43519 
H 1.408013 0.664407 3.629547
H -0.920509  0.961138  3.191911
H -1.267012 -0.760252  2.819532
H -2.583323  1.323904  1.615699
H -2.375534 -0.281385  0.87275 
H -2.534625  2.270135 -0.796745
H -2.363761  0.573178 -1.331923
H -1.289674  2.656747 -2.705366
H  0.073465  2.336269 -1.59939 
H  0.913843 -0.509958 -3.532759
H  1.582731  0.829703 -2.563819
H  0.745199 -0.163286 -0.496616
H -0.3236   -1.276085 -1.397494
H  0.933582 -3.180285 -0.294182
H  2.696169 -3.189605 -0.583366
H  1.978219 -1.986314  0.52445 
