30

C -1.53623   0.596389  5.704526
O -1.160087  0.009117  4.478968
C -1.016069  0.917572  3.405832
C -0.620597  0.091958  2.185206
O -0.464309  1.00134   1.112717
C -0.107539  0.416141 -0.124515
C -0.027181  1.556303 -1.153651
O -0.455713  1.14774  -2.43454 
C  0.508913  0.625221 -3.32123 
C  0.750777 -0.871785 -3.091653
O  1.58658  -1.301741 -4.147303
C  1.892751 -2.678349 -4.140387
H -2.5091    1.101437  5.624197
H -1.610379 -0.211722  6.434745
H -0.787003  1.324499  6.045976
H -0.234824  1.663751  3.620627
H -1.960016  1.449106  3.207225
H -1.40527  -0.647843  1.963195
H  0.319156 -0.445914  2.386007
H -0.85981  -0.318557 -0.452261
H  0.858899 -0.106872 -0.036298
H -0.699112  2.358292 -0.82601 
H  0.993738  1.964975 -1.19486 
H  0.111266  0.762291 -4.333196
H  1.460798  1.171472 -3.241166
H  1.235316 -1.045213 -2.117279
H -0.210679 -1.409168 -3.102007
H  0.984081 -3.290402 -4.227078
H  2.535531 -2.865032 -5.002725
H  2.426121 -2.965007 -3.223043
