30

C -1.455464 -1.164303  5.026626
O -1.003704 -0.261146  4.042615
C -1.558818 -0.458814  2.757616
C -0.948629  0.604332  1.849089
O -1.500472  0.402923  0.563167
C -1.011278  1.266994 -0.445596
C -1.614213  0.815499 -1.785351
O -0.832396 -0.14142  -2.464649
C  0.366234  0.290273 -3.081578
C  1.562712 -0.397175 -2.417289
O  2.714259  0.05862  -3.099301
C  3.927948 -0.506241 -2.65615 
H -1.204652 -2.201494  4.763167
H -0.951401 -0.898541  5.957823
H -2.542614 -1.089073  5.16996 
H -2.654441 -0.348275  2.778411
H -1.317163 -1.461529  2.371574
H 0.146981 0.494143 1.829251
H -1.190946  1.608546  2.231307
H  0.087396  1.231852 -0.485102
H -1.313618  2.306576 -0.235906
H -2.576789  0.332408 -1.587857
H -1.78331   1.698238 -2.422652
H  0.334487  0.005401 -4.142175
H  0.484582  1.380705 -3.01976 
H  1.609305 -0.136234 -1.348106
H  1.4574   -1.489759 -2.501815
H  3.930744 -1.597916 -2.783061
H  4.722604 -0.07175  -3.265747
H  4.115265 -0.27284  -1.598489
