30

C  0.522507 -0.610932  4.187198
O -0.50865  -0.368618  3.257137
C -0.089236  0.258214  2.057293
C -1.354272  0.467505  1.234703
O -0.969144  1.134814  0.047615
C -1.97023   1.238519 -0.950533
C -1.349986  1.935201 -2.16768 
O -0.567649  1.070754 -2.959539
C  0.700397  0.692082 -2.450253
C  0.668192 -0.756485 -1.954946
O  1.990744 -1.073374 -1.561702
C  2.145043 -2.350742 -0.987662
H 1.000628 0.325437 4.507719
H  0.064072 -1.094434  5.052013
H  1.291749 -1.274795  3.76768 
H  0.675925 -0.356274  1.559835
H 0.365827 1.239353 2.274215
H -2.068844  1.071482  1.814185
H -1.820868 -0.503162  1.005848
H -2.819805  1.835555 -0.581539
H -2.339024  0.241719 -1.236151
H -2.156283  2.294998 -2.817462
H -0.757811  2.796531 -1.823211
H  1.426526  0.770701 -3.269736
H  1.017354  1.355072 -1.635096
H -0.02415  -0.857236 -1.106921
H  0.326332 -1.421263 -2.763949
H  1.854276 -3.144779 -1.690119
H  3.201823 -2.463054 -0.736954
H  1.544564 -2.452788 -0.071969
