30

C 0.432566 0.134433 4.386611
O -0.601339  0.194293  3.430051
C -0.234415 -0.235631  2.133579
C -1.424827  0.019651  1.201427
O -0.96911   0.849966  0.147358
C -1.924703  1.143864 -0.856625
C -1.24677   2.03731  -1.902234
O -0.436282  1.316115 -2.802217
C  0.802427  0.829018 -2.313852
C  0.731195 -0.684175 -2.089812
O  2.038405 -1.098268 -1.737681
C  2.166961 -2.473577 -1.461566
H 1.281559 0.769766 4.097872
H 0.01604  0.497364 5.328154
H  0.792391 -0.895249  4.524177
H  0.028176 -1.306342  2.145868
H 0.639191 0.322774 1.763839
H -2.226578  0.519748  1.765902
H -1.820633 -0.925695  0.798518
H -2.785148  1.678163 -0.422361
H -2.288519  0.219684 -1.331365
H -2.020675  2.519326 -2.510902
H -0.664032  2.814139 -1.384541
H  1.56652   1.037795 -3.073883
H  1.088786  1.330218 -1.380489
H  0.018441 -0.922741 -1.287136
H  0.39472  -1.181614 -3.01322 
H  1.897332 -3.08526  -2.334356
H  3.213878 -2.652404 -1.208124
H  1.534454 -2.772673 -0.612974
