30

C  0.575452 -0.67045   4.10774 
O -0.481324 -0.371579  3.231185
C -0.104667  0.320152  2.056353
C -1.375381  0.510728  1.232999
O -0.988926  1.166483  0.040152
C -1.982671  1.245542 -0.96757 
C -1.356915  1.924622 -2.191846
O -0.56281   1.051179 -2.961881
C  0.700246  0.684227 -2.431802
C  0.666559 -0.758384 -1.919619
O  1.981051 -1.060522 -1.489626
C  2.131388 -2.331931 -0.901291
H 1.13399  0.181179 4.518049
H  0.132558 -1.212989  4.947923
H  1.308599 -1.332493  3.619718
H  0.628749 -0.261149  1.475192
H 0.338499 1.298796 2.296634
H -2.105315  1.112814  1.795782
H -1.82506  -0.470158  1.014958
H -2.839207  1.843165 -0.616027
H -2.342466  0.241357 -1.238345
H -2.159934  2.267898 -2.854463
H -0.772802  2.795523 -1.85783 
H  1.437011  0.756483 -3.242345
H  1.003568  1.357809 -1.62023 
H -0.046126 -0.853633 -1.087898
H  0.349546 -1.43579  -2.728256
H  1.865988 -3.134027 -1.604618
H  3.182209 -2.432803 -0.622275
H  1.508201e+00 -2.432049e+00 -7.430000e-04
