30

C  0.24261  -1.049938  4.034313
O -0.51887  -0.108189  3.312478
C -0.433915 -0.231679  1.907032
C -1.304584  0.873218  1.315754
O -1.23713   0.734837 -0.088908
C -1.897673  1.747705 -0.818851
C -1.741259  1.499378 -2.346852
O -0.911769  0.420762 -2.683327
C  0.471099  0.53917  -2.384634
C  0.931246 -0.80258  -1.817205
O  2.295809 -0.655089 -1.470422
C  2.873678 -1.786068 -0.861457
H  1.312982 -0.962909  3.799903
H  0.08868  -0.83846   5.094184
H -0.083535 -2.077429  3.819569
H -0.801058 -1.214875  1.572761
H  0.605244 -0.112235  1.562229
H -0.925782  1.857087  1.634476
H -2.340561  0.766184  1.673639
H -1.477364  2.733559 -0.557404
H -2.969701  1.765059 -0.562047
H -2.722984  1.255354 -2.770251
H -1.389051  2.431348 -2.820524
H  1.033358  0.7746   -3.300688
H  0.6598    1.327856 -1.6466  
H  0.32302  -1.051396 -0.934841
H  0.798487 -1.597271 -2.567855
H  2.835798 -2.662623 -1.523956
H  3.916739 -1.539518 -0.652643
H  2.366695 -2.035858  0.082145
