30

C  0.489944 -0.272097  4.326178
O -0.557449 -0.095389  3.398871
C -0.145901 -0.029579  2.047761
C -1.395234  0.242453  1.207139
O -0.979779  1.002303  0.086552
C -1.959193  1.200046 -0.918522
C -1.309311  1.994623 -2.057649
O -0.513667  1.195638 -2.903452
C  0.743893  0.772633 -2.403769
C  0.699162 -0.709837 -2.022576
O  2.01802 -1.06655 -1.65144
C  2.158249 -2.380218 -1.162877
H 1.209549 0.55729  4.278984
H  0.035339 -0.297501  5.318347
H  1.025854 -1.215507  4.15006 
H  0.341705 -0.967419  1.737687
H 0.567629 0.796585 1.900115
H -2.119102  0.810678  1.812001
H -1.869752 -0.697611  0.887468
H -2.81271   1.769366 -0.51632 
H -2.327992  0.234795 -1.297607
H -2.099394  2.41401  -2.691419
H -0.720671  2.819275 -1.62808 
H  1.484025  0.910377 -3.20265 
H  1.049338  1.369572 -1.534882
H  0.00364  -0.871538 -1.186608
H  0.355096 -1.306875 -2.881898
H  1.858864 -3.123401 -1.915579
H  3.213613 -2.520417 -0.920418
H  1.556247 -2.535705 -0.255394
