30

C  0.585508 -0.677711  4.10521 
O -0.47842  -0.390554  3.225414
C -0.105077  0.306303  2.05485 
C -1.374914  0.501055  1.232311
O -0.988554  1.16437   0.043662
C -1.981307  1.248139 -0.964567
C -1.353033  1.9298   -2.18612 
O -0.558726  1.057434 -2.957249
C  0.702353  0.686357 -2.425242
C  0.665076 -0.758732 -1.920348
O  1.975112 -1.06124  -1.477227
C  2.121589 -2.337127 -0.897611
H 1.069347 0.242492 4.461564
H  0.15926  -1.212277  4.956261
H  1.34299  -1.311376  3.622594
H  0.634968 -0.263767  1.470022
H 0.345047 1.282523 2.296307
H -2.105561  1.099038  1.798572
H -1.823658 -0.478894  1.008147
H -2.837185  1.846145 -0.612018
H -2.342585  0.245422 -1.238772
H -2.154589  2.275788 -2.849092
H -0.768401  2.799107 -1.848898
H  1.441798  0.762053 -3.233031
H  1.00393   1.355183 -1.609126
H -0.056728 -0.858664 -1.097076
H  0.357922 -1.432899 -2.735469
H  1.867081 -3.133993 -1.610842
H  3.169155 -2.437587 -0.606468
H  1.487612 -2.446389 -0.005736
