30

C  0.558886 -0.668089  4.135499
O -0.491536 -0.377508  3.240753
C -0.096888  0.30632   2.068873
C -1.353103  0.509742  1.2346  
O -0.972256  1.160647  0.043905
C -1.971264  1.246084 -0.958285
C -1.350901  1.927331 -2.183984
O -0.565727  1.053737 -2.962831
C  0.701362  0.682835 -2.445358
C  0.669008 -0.759381 -1.931908
O  1.990275 -1.069381 -1.528977
C  2.143243 -2.33789  -0.935179
H 1.047748 0.250087 4.490237
H  0.117008 -1.191294  4.985626
H  1.315601 -1.313349  3.66727 
H  0.635976 -0.283229  1.495066
H 0.355076 1.280975 2.311448
H -2.130108  1.063779  1.792045
H -1.868819 -0.449463  1.047105
H -2.823813  1.84493  -0.599348
H -2.335589  0.243714 -1.229594
H -2.15706   2.276489 -2.839688
H -0.761021  2.794552 -1.850536
H  1.42973   0.751922 -3.263706
H  1.015339  1.356337 -1.637716
H -0.026833 -0.850286 -1.085639
H  0.331445 -1.434848 -2.733823
H  1.855636 -3.142616 -1.626672
H  3.199153 -2.445654 -0.678868
H  1.539442 -2.426496 -0.020297
