30

C  0.53764  -0.745467  4.114636
O -0.520772 -0.463696  3.226413
C -0.145903  0.257379  2.070257
C -1.40905   0.428025  1.231036
O -1.024268  1.119272  0.05779 
C -2.007474  1.194574 -0.960553
C -1.389705  1.928352 -2.156985
O -0.559714  1.103179 -2.942175
C  0.710055  0.764153 -2.409757
C  0.719451 -0.690517 -1.931751
O  2.044122 -0.965142 -1.514567
C  2.231349 -2.241836 -0.94883 
H  1.33167  -1.322088  3.619549
H 0.973753 0.177659 4.521603
H  0.119811 -1.336452  4.931853
H  0.611816 -0.293068  1.490243
H 0.266665 1.243831 2.333861
H -2.164536  0.997104  1.794426
H -1.826648 -0.560708  0.986305
H -2.887435  1.753757 -0.603705
H -2.330649  0.187288 -1.264048
H -2.195742  2.26548  -2.819118
H -0.837339  2.807044 -1.790902
H  1.450271  0.878643 -3.212235
H  0.985287  1.428206 -1.580443
H  0.013976 -0.825959 -1.099504
H  0.418004 -1.357107 -2.755196
H  1.982586 -3.038749 -1.664037
H  3.286174 -2.319806 -0.677679
H  1.616616 -2.373352 -0.046468
