30

C  0.526618 -0.737199  4.133243
O -0.520709 -0.48805   3.221685
C -0.145228  0.236449  2.067905
C -1.408455  0.409763  1.229256
O -1.024808  1.109044  0.060407
C -2.007908  1.18822  -0.957766
C -1.39208   1.931884 -2.149086
O -0.55995   1.114392 -2.939993
C  0.710982  0.77551  -2.410267
C  0.724659 -0.682062 -1.941302
O  2.050549 -0.95587  -1.527514
C  2.241409 -2.235031 -0.968559
H  1.221012 -1.496271  3.745931
H 1.086848 0.179577 4.361214
H  0.067788 -1.113243  5.050227
H  0.612957 -0.310227  1.484842
H 0.266162 1.22197  2.336415
H -2.165107  0.973869  1.796106
H -1.82416  -0.578173  0.978259
H -2.88964   1.742365 -0.597443
H -2.327983  0.182026 -1.268084
H -2.199039  2.271457 -2.808847
H -0.842049  2.80949  -1.776927
H  1.450462  0.897017 -3.212388
H  0.984809  1.435172 -1.576983
H  0.020599 -0.824434 -1.109011
H  0.423851 -1.344301 -2.768486
H  1.993659 -3.028828 -1.687572
H  3.296732 -2.311929 -0.699049
H  1.628031 -2.372588 -0.06619 
