30

C  0.577065 -0.675291  4.115638
O -0.48421  -0.384183  3.233911
C -0.104252  0.303462  2.059157
C -1.374677  0.503672  1.237596
O -0.985154  1.158183  0.044892
C -1.978334  1.244002 -0.961756
C -1.354237  1.925965 -2.185857
O -0.559793  1.056543 -2.960312
C  0.70277  0.6865  -2.43133
C  0.667865 -0.758163 -1.924951
O  1.981075 -1.061718 -1.49198 
C  2.130136 -2.336094 -0.909807
H 1.068402 0.242806 4.467144
H  0.146127 -1.201617  4.969466
H  1.329431 -1.317883  3.636832
H  0.624181 -0.282506  1.476421
H 0.346461 1.279223 2.298962
H -2.099722  1.110165  1.801918
H -1.831341 -0.473802  1.01895 
H -2.828075  1.85546  -0.616646
H -2.347673  0.243792 -1.233012
H -2.158987  2.269752 -2.846   
H -0.770969  2.79673  -1.849973
H  1.439777  0.761622 -3.241374
H  1.006393  1.356466 -1.616854
H -0.047476 -0.856751 -1.095925
H  0.353641 -1.432544 -2.737201
H  1.867771 -3.134648 -1.618294
H  3.18002  -2.437781 -0.627561
H  1.503798 -2.441363 -0.012035
