30

C  0.581411 -0.673874  4.111616
O -0.479682 -0.388415  3.22786 
C -0.102016  0.306766  2.056824
C -1.370336  0.498493  1.231236
O -0.985651  1.161598  0.043778
C -1.979417  1.246708 -0.963503
C -1.3524    1.929374 -2.185099
O -0.559154  1.057599 -2.95796 
C  0.702631  0.686035 -2.427983
C  0.66592  -0.759315 -1.923805
O  1.977127 -1.062954 -1.484979
C  2.124476 -2.339125 -0.906218
H 1.064028 0.246993 4.467932
H  0.152409 -1.206923  4.962241
H  1.340527 -1.308393  3.632693
H  0.633183 -0.270987  1.474233
H 0.3398   1.285342 2.301493
H -2.114839  1.107642  1.80692 
H -1.822224 -0.480195  1.009838
H -2.834543  1.844647 -0.6091  
H -2.34136   0.244391 -1.238173
H -2.154685  2.276118 -2.846785
H -0.767207  2.798261 -1.847745
H  1.440861  0.76198  -3.236862
H  1.005546  1.35447  -1.612038
H -0.053368 -0.859285 -1.098325
H  0.355757 -1.432741 -2.738399
H  1.866966 -3.135578 -1.618829
H  3.172912 -2.440519 -0.618555
H  1.49334  -2.448115 -0.012289
