30

C -1.409254  0.629129  5.733757
O -1.165633  0.023901  4.483667
C -0.970432  0.928217  3.415181
C -0.733531  0.083902  2.166556
O -0.527331  0.987773  1.097783
C -0.302594  0.386498 -0.163244
C -0.153702  1.534521 -1.172065
O -0.45605   1.123752 -2.487559
C  0.592397  0.626048 -3.290305
C  0.779488 -0.885884 -3.114187
O  1.716207 -1.283221 -4.095257
C  1.994164 -2.665438 -4.126718
H -2.319523  1.24463   5.709624
H -1.540429 -0.177689  6.457352
H -0.564276  1.259598  6.04455 
H -0.098541  1.57586   3.598574
H -1.855197  1.5681    3.27094 
H -1.608061 -0.557566  1.97669 
H  0.146975 -0.561043  2.312834
H -1.158287 -0.243108 -0.453943
H  0.600368 -0.243882 -0.136637
H -0.87327   2.317449 -0.904705
H  0.85768   1.963807 -1.114171
H  0.312578  0.821728 -4.331976
H  1.538482  1.145763 -3.078093
H  1.15169  -1.120105 -2.103917
H -0.185506 -1.397715 -3.255674
H  1.088946 -3.250469 -4.34154 
H  2.722736 -2.82482  -4.923866
H  2.419915 -3.009734 -3.173635
