30

C  0.602166 -0.678148  4.083948
O -0.463849 -0.400733  3.203586
C -0.099741  0.321686  2.044661
C -1.371362  0.49726   1.219233
O -0.995531  1.183152  0.040457
C -1.988955  1.259368 -0.971767
C -1.348643  1.940642 -2.185608
O -0.555707  1.059448 -2.947078
C  0.701707  0.685317 -2.408098
C  0.658636 -0.761287 -1.908354
O  1.963585 -1.065858 -1.452057
C  2.104694 -2.346277 -0.880982
H 1.064717 0.246739 4.456133
H  0.183822 -1.234261  4.925076
H  1.375113 -1.288324  3.595591
H  0.650286 -0.229109  1.455143
H 0.318194 1.306415 2.306223
H -2.117767  1.071557  1.789569
H -1.796734 -0.490013  0.981825
H -2.864713  1.806979 -0.590421
H -2.32168   0.248136 -1.255928
H -2.140588  2.29361  -2.856862
H -0.759636  2.805238 -1.844102
H  1.446873  0.762592 -3.210554
H  0.998574  1.351039 -1.587897
H -0.072089 -0.863661 -1.093263
H  0.35981  -1.432611 -2.728894
H  1.860539 -3.137597 -1.60393 
H  3.148647 -2.44753  -0.577424
H  1.459641e+00 -2.463768e+00  1.794000e-03
