30

C  0.623068 -0.68447   4.090119
O -0.455072 -0.407323  3.224563
C -0.105603  0.306455  2.055881
C -1.389206  0.485439  1.250185
O -1.026794  1.16137   0.059366
C -2.022855  1.223119 -0.935113
C -1.319367  1.956799 -2.256165
O -0.525434  1.07123  -2.986283
C  0.721328  0.697041 -2.421448
C  0.664416 -0.747965 -1.919159
O  1.963278 -1.058365 -1.449863
C  2.091094 -2.33645  -0.870255
H 1.095606 0.240444 4.449459
H  0.215122 -1.233476  4.940962
H  1.385559 -1.301272  3.593694
H  0.631319 -0.252225  1.45723 
H 0.322689 1.28995  2.305038
H -2.122075  1.069365  1.827659
H -1.825249 -0.49988   1.025461
H -2.878738  1.834067 -0.615565
H -2.36453   0.223738 -1.234101
H -2.12612   2.291561 -2.91349 
H -0.748838  2.815684 -1.880481
H  1.482588  0.771166 -3.208672
H  1.000883  1.364608 -1.59662 
H -0.074425 -0.843977 -1.110731
H  0.369885 -1.419211 -2.741277
H  1.847764 -3.130262 -1.590697
H  3.131781 -2.442673 -0.557396
H  1.437936 -2.444488  0.007719
