30

C -1.754111  0.560049  5.629348
O -1.177224  0.009101  4.466634
C -1.068604  0.903927  3.377852
C -0.439678  0.120251  2.229676
O -0.317852  1.018237  1.143732
C  0.223983  0.46077  -0.040004
C  0.208292  1.566154 -1.113458
O -0.450562  1.152858 -2.293553
C  0.335006  0.600846 -3.325985
C  0.70856  -0.861835 -3.05489 
O  1.34556  -1.32858  -4.227253
C  1.732814 -2.684218 -4.194051
H -2.779456  0.908082  5.440837
H -1.776245 -0.232677  6.379603
H -1.159451  1.4021    6.010691
H -0.431573  1.764935  3.634946
H -2.057946  1.280961  3.074649
H -1.081419 -0.734261  1.964133
H  0.545483 -0.265464  2.535642
H -0.395731 -0.384045 -0.379175
H 1.245649 0.090519 0.141588
H -0.367844  2.410678 -0.716806
H  1.227593  1.912715 -1.336954
H -0.273347  0.643945 -4.236031
H  1.250628  1.190376 -3.486909
H  1.38582  -0.937216 -2.18867 
H -0.200335 -1.44517  -2.838059
H  0.865056 -3.344621 -4.057507
H  2.203876 -2.903468 -5.154073
H  2.453068 -2.874947 -3.385934
