30

C  0.527585 -0.673351  4.04588 
O -0.437211 -0.389272  3.231356
C -0.08065   0.315043  2.050753
C -1.357655  0.508476  1.24    
O -0.981332  1.170564  0.047937
C -1.980203  1.248093 -0.955185
C -1.359537  1.924236 -2.183706
O -0.568158  1.048831 -2.954122
C  0.696177  0.682277 -2.426557
C  0.663895 -0.76087  -1.915785
O  1.975307 -1.057291 -1.473122
C  2.127179 -2.329952 -0.887604
H 1.056687 0.218816 4.447914
H  0.117752 -1.214878  4.910029
H  1.314443 -1.323907  3.603437
H  0.651455 -0.262047  1.46487 
H 0.364089 1.29004  2.30182 
H -2.083762  1.106551  1.81205 
H -1.807861 -0.471943  1.020665
H -2.83474   1.846631 -0.600527
H -2.341381  0.243444 -1.222154
H -2.165306  2.265347 -2.844064
H -0.774496  2.796236 -1.854255
H  1.431877  0.756275 -3.237892
H  1.000046  1.354878 -1.614429
H -0.05663  -0.859557 -1.091131
H  0.357517 -1.439299 -2.727648
H  1.873871 -3.13106  -1.596457
H  3.175652 -2.425368 -0.598159
H  1.495401 -2.436944  0.006105
