30

C  0.555461 -0.639759  4.156906
O -0.481009 -0.376191  3.235533
C -0.080146  0.28078   2.058122
C -1.357399  0.47448   1.235808
O -0.976948  1.147616  0.050807
C -1.97302   1.237444 -0.953551
C -1.350869  1.932643 -2.170598
O -0.556967  1.07008  -2.953216
C  0.703924  0.691742 -2.42592 
C  0.665508 -0.759923 -1.940372
O  1.975237 -1.069776 -1.501438
C  2.12231  -2.357037 -0.947652
H 1.045323 0.288974 4.481461
H  0.097128 -1.125282  5.020541
H  1.313495 -1.308147  3.726096
H  0.657739 -0.213372  1.409317
H 0.338905 1.273955 2.29954 
H -2.092097  1.063104  1.806255
H -1.798989 -0.507475  1.005679
H -2.829731  1.829357 -0.59283 
H -2.332063  0.236183 -1.236   
H -2.155504  2.283135 -2.827421
H -0.767198  2.80005  -1.82681 
H  1.443665  0.777625 -3.232433
H  1.005543  1.349712 -1.601089
H -0.056337 -0.870458 -1.118446
H  0.357581 -1.422558 -2.764609
H  1.871293 -3.139473 -1.677904
H  3.169223 -2.46167  -0.655633
H  1.48595 -2.48576 -0.06012
