30

C  0.65041  -0.749706  4.009211
O -0.44881  -0.406413  3.194362
C -0.122691  0.365068  2.061107
C -1.398485  0.540321  1.233583
O -1.007379  1.192975  0.040876
C -1.990463  1.25427  -0.978427
C -1.354045  1.921101 -2.203976
O -0.547181  1.041721 -2.953873
C  0.706498  0.679168 -2.398815
C  0.663907 -0.761122 -1.880877
O  1.964066 -1.053154 -1.403046
C  2.102342 -2.322996 -0.808183
H 1.150822 0.145615 4.403632
H  0.258311 -1.338054  4.840932
H  1.38521  -1.35077   3.455271
H  0.569064 -0.1638    1.383618
H 0.304658 1.339367 2.337314
H -2.1483    1.134853  1.77893 
H -1.827107 -0.450467  1.019009
H -2.853911  1.851703 -0.643841
H -2.342186  0.244979 -1.240645
H -2.150724  2.252545 -2.880081
H -0.777545  2.798634 -1.87408 
H  1.458671  0.749308 -3.195289
H  0.993305  1.356244 -1.58426 
H -0.077242 -0.856295 -1.074352
H  0.379345 -1.444719 -2.696332
H  1.869127 -3.127581 -1.520011
H  3.142961 -2.415579 -0.490692
H  1.447381 -2.427216  0.068956
