30

C  1.011819 -1.088501  3.380306
O -0.042464 -0.828905  2.480059
C -0.05636   0.489396  1.955159
C -1.362401  0.649796  1.168331
O -1.055558  1.365512 -0.014188
C -2.021734  1.324498 -1.049332
C -1.365119  1.881493 -2.319362
O -0.526801  0.948445 -2.963577
C  0.692682  0.620548 -2.315319
C  0.607191 -0.782257 -1.705527
O  1.739442 -0.938402 -0.871514
C  1.765615 -2.151549 -0.151328
H  0.954706 -0.432678  4.260575
H  0.909767 -2.127465  3.699813
H  1.991657 -0.952524  2.901961
H 0.798542 0.646252 1.280538
H -0.004456  1.215598  2.781035
H -2.12253   1.182696  1.760055
H -1.752213 -0.349841  0.92271 
H -2.896008  1.942604 -0.78707 
H -2.362627  0.293325 -1.225304
H -2.148602  2.134678 -3.042937
H -0.80888   2.79541  -2.060774
H  1.490576  0.646871 -3.068774
H  0.932575  1.344576 -1.526897
H -0.319989 -0.881272 -1.122784
H  0.595141 -1.544898 -2.500343
H  1.805819 -3.017298 -0.82771 
H  2.666463 -2.137523  0.465798
H  0.883755 -2.248588  0.496419
