30

C  0.583851 -0.674058  4.104466
O -0.486872 -0.385983  3.233127
C -0.119856  0.299678  2.052788
C -1.406548  0.495782  1.243241
O -1.00122   1.154134  0.046797
C -1.987562  1.239884 -0.967056
C -1.353261  1.928265 -2.18187 
O -0.554293  1.060628 -2.953494
C  0.705167  0.689531 -2.418012
C  0.667393 -0.756049 -1.914601
O  1.981138 -1.064814 -1.486989
C  2.127426 -2.339425 -0.904685
H 1.07778  0.245346 4.448845
H  0.162506 -1.199056  4.963902
H  1.331933 -1.316802  3.619193
H  0.602893 -0.287045  1.464026
H 0.331779 1.276468 2.28597 
H -2.059463  1.169737  1.809723
H -1.782903 -0.500307  0.983446
H -2.847124  1.834966 -0.618289
H -2.345216  0.237771 -1.248594
H -2.151614  2.277163 -2.847211
H -0.771023  2.796228 -1.837091
H  1.446784  0.765678 -3.223769
H  1.004204  1.358265 -1.600839
H -0.045215 -0.854347 -1.083134
H  0.348037 -1.427433 -2.727336
H  1.858797 -3.137354 -1.611533
H  3.178058 -2.445272 -0.626785
H  1.504435 -2.441576 -0.004213
