30

C  0.485162 -0.743885  4.186715
O -0.528763 -0.509019  3.226804
C -0.148755  0.212451  2.073719
C -1.410524  0.376048  1.229999
O -1.028816  1.08303   0.06519 
C -2.012457  1.163585 -0.952454
C -1.405902  1.930705 -2.133597
O -0.565987  1.133742 -2.937022
C  0.710619  0.803936 -2.415454
C  0.743047 -0.657675 -1.960113
O  2.077763 -0.924779 -1.570989
C  2.28734  -2.20694  -1.025855
H  0.711624 -1.816157  4.23454 
H  1.403375 -0.195902  3.948876
H  0.124119 -0.416439  5.167889
H  0.612793 -0.332145  1.493295
H 0.254211 1.202694 2.336428
H -2.174424  0.931172  1.795969
H -1.816065 -0.614814  0.97412 
H -2.90093   1.702044 -0.585042
H -2.320089  0.157717 -1.27612 
H -2.217286  2.270956 -2.787578
H -0.864986  2.808816 -1.749451
H  1.445098  0.940585 -3.219711
H  0.980792  1.459431 -1.577639
H  0.054219 -0.813561 -1.117575
H  0.433778 -1.314359 -2.788614
H  2.034465 -2.996707 -1.747528
H  3.347336 -2.277755 -0.773573
H  1.689252 -2.356773 -0.115213
