30

C  0.584272 -0.678609  4.104837
O -0.480538 -0.390287  3.226459
C -0.10843   0.304647  2.055267
C -1.377226  0.502223  1.232986
O -0.989654  1.163929  0.043825
C -1.981967  1.247743 -0.964843
C -1.353252  1.929276 -2.186243
O -0.558567  1.056934 -2.956972
C  0.70258   0.686417 -2.424731
C  0.665617 -0.758356 -1.918933
O  1.976761 -1.061707 -1.47967 
C  2.123608 -2.336773 -0.89836 
H 1.070213 0.241065 4.45967 
H  0.158471 -1.211814  4.956957
H  1.339907 -1.313872  3.621446
H  0.636832 -0.260062  1.470798
H 0.352795 1.277666 2.291181
H -2.106249  1.102307  1.799116
H -1.828493 -0.476732  1.009565
H -2.837925  1.845863 -0.612707
H -2.343209  0.245021 -1.239108
H -2.154648  2.275065 -2.849512
H -0.768853  2.798715 -1.848937
H  1.441964  0.761623 -3.232626
H  1.004071  1.355943 -1.609157
H -0.053714 -0.857305 -1.093386
H  0.355409 -1.432619 -2.732818
H  1.865572 -3.134552 -1.6093  
H  3.172054 -2.438101 -0.610701
H  1.492608 -2.443646 -0.004082
