30

C  0.601442 -0.694578  4.086714
O -0.462761 -0.392487  3.213294
C -0.074993  0.306987  2.033277
C -1.361393  0.499497  1.224668
O -0.987156  1.175558  0.039053
C -1.981389  1.251609 -0.968344
C -1.355611  1.928395 -2.19385 
O -0.557084  1.054344 -2.959   
C  0.701561  0.685565 -2.41972 
C  0.662404 -0.759328 -1.914278
O  1.966534 -1.057046 -1.451011
C  2.111996 -2.338026 -0.882391
H 1.095073 0.219083 4.447354
H  0.17291  -1.229506  4.936612
H  1.352507 -1.333406  3.600553
H  0.560951 -0.178089  1.535444
H 0.32539  1.301026 2.300602
H -2.095191  1.084307  1.799312
H -1.799517 -0.484042  0.994371
H -2.838606  1.848951 -0.617991
H -2.340136  0.246552 -1.23727 
H -2.158028  2.266903 -2.859576
H -0.774591  2.802108 -1.861804
H  1.445809  0.761803 -3.223052
H  0.997457  1.355054 -1.602145
H -0.071485 -0.861497 -1.101934
H  0.36989  -1.435171 -2.733353
H  1.877041 -3.128862 -1.608883
H  3.154688 -2.433768 -0.572771
H  1.462297 -2.461933 -0.00386 
