30

C -0.112093 -0.090871  4.381684
O  0.154756 -0.81916   3.202768
C  0.342113 -0.058038  2.030461
C -1.000729  0.284707  1.371955
O -0.693419  0.993517  0.186122
C -1.785912  1.228489 -0.686821
C -1.259491  1.993244 -1.907433
O -0.63149   1.159027 -2.853211
C  0.663845  0.676673 -2.536742
C  0.606408 -0.799082 -2.132234
O  1.948574 -1.220218 -1.975804
C  2.10249  -2.528836 -1.476079
H -1.077027  0.431996  4.333336
H -0.142374 -0.815129  5.198271
H 0.678832 0.645222 4.582084
H  0.929388 -0.674147  1.340349
H 0.897955 0.86846  2.238144
H -1.619229  0.901087  2.043446
H -1.549728 -0.642322  1.146147
H -2.556081  1.833433 -0.181545
H -2.23912   0.277862 -1.006028
H -2.107575  2.455484 -2.426144
H -0.575849  2.785075 -1.565486
H  1.283591  0.772189 -3.437628
H  1.122014  1.264596 -1.730945
H  0.049259 -0.919308 -1.192126
H  0.097173 -1.382199 -2.915852
H  1.648748 -3.271445 -2.14773 
H  3.175222 -2.718816 -1.403616
H  1.649762 -2.631488 -0.479322
