30

C -0.211567 -0.234122  5.028431
O -0.947969 -0.309097  3.828162
C -0.440971  0.479721  2.770931
C -1.375222  0.270491  1.582838
O -0.854459  1.040731  0.516244
C -1.571554  0.946593 -0.702001
C -0.828707  1.816321 -1.73307 
O -0.731953  1.155555 -2.980711
C  0.503171  0.546463 -3.289663
C  0.796323 -0.670132 -2.403098
O  1.989506 -1.240537 -2.904923
C  2.444524 -2.373992 -2.200447
H -0.190363  0.792134  5.421239
H -0.71141  -0.884244  5.748981
H  0.822054 -0.579647  4.885924
H 0.580834 0.169792 2.499967
H -0.419507  1.545811  3.046783
H -2.393857  0.596487  1.844164
H -1.407931 -0.797761  1.317635
H -2.606569  1.297109 -0.565182
H -1.609326 -0.095956 -1.05204 
H -1.378901  2.750175 -1.903379
H  0.165332  2.06841  -1.339699
H  0.431587  0.218503 -4.332037
H  1.33116   1.266735 -3.202587
H  0.924201 -0.363811 -1.352825
H -0.037849 -1.38782  -2.459608
H  1.707015 -3.188299 -2.233241
H  3.364616 -2.702975 -2.687265
H  2.6578   -2.132636 -1.149503
