30

C  0.320549 -1.001369  4.0126  
O -0.524762 -0.130721  3.294772
C -0.378527 -0.189938  1.890183
C -1.35167   0.828679  1.303555
O -1.2133    0.75733  -0.100918
C -1.944478  1.725754 -0.823376
C -1.696617  1.562681 -2.35166 
O -0.881212  0.477845 -2.702518
C  0.495189  0.553462 -2.362145
C  0.90618  -0.812871 -1.81553 
O  2.25883  -0.704129 -1.411884
C  2.792897 -1.868208 -0.825835
H  1.37972  -0.777688  3.822134
H  0.106539 -0.850746  5.072441
H  0.128766 -2.051556  3.750736
H -0.616677 -1.195771  1.509378
H 0.650344 0.062038 1.588807
H -1.104237  1.835802  1.674253
H -2.380866  0.586899  1.611839
H -1.645278  2.739165 -0.507629
H -3.021944  1.617184 -0.614817
H -2.657483  1.384006 -2.848662
H -1.281718  2.50616  -2.745193
H  1.087839  0.795267 -3.257184
H  0.683104  1.320317 -1.601467
H  0.259158 -1.074198 -0.964978
H  0.787457 -1.583378 -2.593308
H  2.767126 -2.717456 -1.523566
H  3.830699 -1.649045 -0.56634 
H  2.244383 -2.145512  0.086331
