30

C  1.366152 -0.194461  2.938903
O 0.434055 0.117395 1.931005
C -0.90975   0.126953  2.361911
C -1.83575   0.645584  1.236396
O -1.073871  1.152509  0.165732
C -1.811613  1.500788 -0.989951
C -0.815869  1.878565 -2.097635
O -0.509378  0.775318 -2.925641
C  0.696135  0.077732 -2.683484
C  0.66202  -0.743113 -1.389352
O  1.702427 -1.701086 -1.50516 
C  1.869272 -2.508663 -0.363606
H  1.204129 -1.205749  3.339612
H  2.355587 -0.144788  2.480799
H 1.315382 0.525557 3.76825 
H -1.016171  0.76646   3.253771
H -1.215897 -0.897397  2.635682
H -2.498991  1.427968  1.642998
H -2.476373 -0.180742  0.882908
H -2.4741    2.355624 -0.775789
H -2.430284  0.655296 -1.327704
H -1.278242  2.638582 -2.741409
H  0.090116  2.304726 -1.645645
H  0.818561 -0.608876 -3.528597
H  1.552252  0.769809 -2.667502
H  0.824404 -0.106548 -0.510087
H -0.316445 -1.238457 -1.288931
H  0.968302 -3.104944 -0.158295
H  2.706115 -3.181352 -0.563833
H  2.097834 -1.90269   0.524673
