30

C  0.406568 -0.914237  4.018891
O -0.543976 -0.178582  3.28177 
C -0.284316 -0.101238  1.894705
C -1.395716  0.748923  1.285845
O -1.127516  0.831398 -0.099313
C -2.01173   1.652569 -0.833334
C -1.609568  1.676016 -2.333321
O -0.825529  0.589057 -2.747565
C  0.541229  0.575394 -2.362903
C  0.861773 -0.822954 -1.835988
O  2.209079 -0.799619 -1.401225
C  2.657511 -1.998631 -0.814187
H  1.407743 -0.467946  3.938088
H  0.086528 -0.892262  5.062364
H  0.456609 -1.958047  3.677949
H -0.286269 -1.102937  1.435892
H 0.692438 0.368698 1.700028
H -1.395301  1.748329  1.74839 
H -2.374422  0.279256  1.471174
H -2.000774  2.682311 -0.440644
H -3.040814  1.266877 -0.734969
H -2.523492  1.645554 -2.937823
H -1.090854  2.625682 -2.548419
H  1.170947  0.798664 -3.237086
H  0.751039  1.317231 -1.583599
H  0.182657 -1.066279 -1.0055  
H  0.717653 -1.569265 -2.632943
H  2.597499 -2.83907  -1.520454
H  3.700015 -1.845075 -0.527712
H  2.070998 -2.249817  0.081909
