30

C  0.591816 -0.70298   4.080583
O -0.486032 -0.389836  3.229301
C -0.120319  0.326799  2.058058
C -1.385872  0.525317  1.235075
O -0.992539  1.171955  0.039288
C -1.98449   1.251572 -0.970241
C -1.354608  1.924486 -2.195807
O -0.562737  1.045772 -2.962031
C  0.701256  0.681062 -2.43276 
C  0.667865 -0.757257 -1.908558
O  1.986145 -1.060665 -1.491084
C  2.136243 -2.322516 -0.882584
H 1.085727 0.205016 4.454137
H  0.179705 -1.260285  4.924046
H  1.338841 -1.325266  3.566666
H  0.601748 -0.315937  1.527396
H 0.344667 1.291891 2.302814
H -2.109289  1.138072  1.794973
H -1.846097 -0.451498  1.021496
H -2.839313  1.853434 -0.621824
H -2.347452  0.247821 -1.238351
H -2.15569   2.26849  -2.860414
H -0.767865  2.794402 -1.863869
H  1.435399  0.745414 -3.246326
H  1.008194  1.361118 -1.627902
H -0.035489 -0.84324  -1.068011
H  0.339332 -1.439934 -2.708108
H  1.854627 -3.135031 -1.567392
H  3.190362 -2.426191 -0.617363
H  1.525877 -2.401983  0.028814
