30

C  0.499976 -0.727738  4.173645
O -0.52198  -0.50924   3.222275
C -0.142974  0.212548  2.068505
C -1.40608   0.386     1.229231
O -1.02329   1.091343  0.063775
C -2.007711  1.175616 -0.952775
C -1.39702   1.934087 -2.137372
O -0.563165  1.128301 -2.938322
C  0.711153  0.791077 -2.415829
C  0.733312 -0.669674 -1.957178
O  2.064352 -0.943023 -1.559951
C  2.263915 -2.224761 -1.010022
H  0.999909 -1.690004  3.998081
H 1.243777 0.077638 4.159339
H  0.029581 -0.757194  5.160876
H  0.614534 -0.334289  1.48465 
H 0.267595 1.198676 2.335186
H -2.164358  0.945852  1.798141
H -1.819316 -0.601769  0.97368 
H -2.89176   1.721845 -0.586128
H -2.323134  0.170926 -1.272575
H -2.206618  2.277277 -2.792026
H -0.849842  2.80999  -1.757078
H  1.446809  0.921176 -3.220106
H  0.985507  1.446342 -1.579216
H  0.038876 -0.819771 -1.118188
H  0.425099 -1.326711 -2.785789
H  2.010251 -3.015204 -1.730671
H  3.322203 -2.300784 -0.752151
H  1.660409 -2.368533 -0.101988
