30

C  0.178275 -0.647642  4.518803
O -0.743678 -0.488272  3.46363 
C -0.290809  0.320637  2.397482
C -1.425764  0.379435  1.379074
O -0.95062  1.14587  0.28837
C -1.780711  1.154912 -0.859703
C -1.030824  1.908654 -1.974443
O -0.754211  1.071227 -3.078532
C  0.524374  0.473028 -3.123477
C  0.721359 -0.578222 -2.024828
O  1.965121 -1.198071 -2.293291
C  2.345758 -2.179644 -1.355983
H 0.430972 0.318202 4.978307
H -0.299408 -1.286183  5.264271
H  1.104335 -1.127301  4.171764
H  0.606479 -0.11117   1.92521 
H -0.045463  1.336022  2.746377
H -2.316142  0.843543  1.830028
H -1.687664 -0.640566  1.057982
H -2.74998   1.631702 -0.645553
H -1.98646   0.12585  -1.193103
H -1.638347  2.747253 -2.335944
H -0.102972  2.325659 -1.557226
H  0.599662 -0.015039 -4.1009  
H  1.316804  1.233468 -3.046888
H  0.732533 -0.105517 -1.031023
H -0.09912  -1.313122 -2.055417
H  1.623136 -3.007464 -1.327159
H  3.318098 -2.562602 -1.671899
H  2.435276 -1.754646 -0.345909
