30

C  0.576353 -0.668504  4.117915
O -0.480846 -0.389166  3.227674
C -0.098435  0.299716  2.053399
C -1.368498  0.494966  1.231366
O -0.984108  1.160372  0.043087
C -1.979061  1.247183 -0.962725
C -1.352941  1.930985 -2.184153
O -0.560953  1.059514 -2.95864 
C  0.701296  0.687216 -2.43032 
C  0.664321 -0.75803  -1.925878
O  1.975634 -1.062004 -1.487555
C  2.122917 -2.33827  -0.908989
H 1.056321 0.254865 4.471353
H  0.144033 -1.197326  4.969503
H  1.338412 -1.304816  3.646058
H  0.644835 -0.279947  1.483904
H 0.342704 1.279367 2.297081
H -2.097138  1.092325  1.800515
H -1.818602 -0.484155  1.0061  
H -2.833716  1.845056 -0.606968
H -2.341696  0.245343 -1.238328
H -2.155617  2.278996 -2.844718
H -0.766874  2.799097 -1.846359
H  1.438546  0.76268  -3.240142
H  1.005663  1.355439 -1.614741
H -0.054672 -0.857582 -1.10007 
H  0.35364  -1.43156  -2.740185
H  1.865087 -3.13459  -1.621635
H  3.17141  -2.439886 -0.621613
H  1.491999 -2.447285 -0.014916
