30

C -1.956089  0.519655  5.529028
O -1.189172  0.028941  4.452378
C -1.123986  0.887879  3.331536
C -0.27165   0.176494  2.284881
O -0.193415  1.041758  1.169213
C 0.529707 0.534446 0.062462
C  0.425673  1.569398 -1.07346 
O -0.409671  1.128209 -2.125681
C  0.205327  0.56718  -3.262473
C  0.662946 -0.877392 -3.024245
O  1.126534 -1.353722 -4.271948
C  1.555621 -2.697069 -4.273366
H -3.001567  0.684954  5.232919
H -1.92099  -0.236814  6.315378
H -1.545039  1.462681  5.916174
H -0.661161  1.851342  3.597525
H -2.128046  1.084472  2.924125
H -0.740253 -0.781036  2.008993
H  0.729258 -0.03082   2.695342
H  0.098989 -0.423606 -0.26581 
H 1.582849 0.364304 0.3398  
H -0.019691  2.483905 -0.664073
H  1.427071  1.816515 -1.456079
H -0.549306  0.570051 -4.056547
H  1.063505  1.173654 -3.590932
H  1.467731 -0.911147 -2.271952
H -0.182051 -1.481668 -2.658127
H  0.739809 -3.377625 -3.992114
H  1.880015 -2.925747 -5.290287
H  2.397062 -2.849194 -3.582642
