30

C  0.611254 -0.680888  4.07225 
O -0.456754 -0.406107  3.193493
C -0.097885  0.325807  2.038867
C -1.370399  0.495699  1.21358 
O -0.999104  1.18974   0.038205
C -1.992839  1.263438 -0.974951
C -1.347739  1.944038 -2.186382
O -0.553896  1.060384 -2.943775
C  0.701614  0.685508 -2.400828
C  0.656048 -0.761532 -1.902601
O  1.957717 -1.065509 -1.436681
C  2.096245 -2.347537 -0.868508
H 1.067004 0.245147 4.449937
H  0.197011 -1.245038  4.910053
H  1.388669 -1.282466  3.580321
H  0.656918 -0.215512  1.4467  
H 0.311913 1.312388 2.306269
H -2.121421  1.061727  1.786166
H -1.788225 -0.493662  0.971478
H -2.873638  1.795909 -0.584467
H -2.318064  0.2503   -1.262273
H -2.136171  2.298442 -2.861169
H -0.758168  2.807508 -1.843122
H  1.449721  0.763397 -3.200489
H  0.995706  1.350249 -1.578874
H -0.080774 -0.865048 -1.093162
H  0.363883 -1.432481 -2.725838
H  1.859592 -3.136909 -1.596064
H  3.137784 -2.447945 -0.556504
H  1.444008 -2.469047  0.008391
