30

C  0.578256 -0.67911   4.106097
O -0.481314 -0.389015  3.227502
C -0.103377  0.305527  2.055543
C -1.373706  0.50081   1.232704
O -0.986255  1.161253  0.042777
C -1.979782  1.246108 -0.964677
C -1.352831  1.929439 -2.18596 
O -0.55966   1.058097 -2.959306
C  0.702467  0.686893 -2.429975
C  0.665983 -0.757848 -1.92407 
O  1.979323 -1.063659 -1.493169
C  2.127347 -2.338745 -0.912236
H 1.056191 0.232751 4.497064
H  0.158427 -1.173648  4.986448
H  1.335566 -1.320822  3.638266
H  0.629515 -0.27395   1.472092
H 0.340891 1.282974 2.299951
H -2.103181  1.101218  1.797862
H -1.824251 -0.478714  1.010431
H -2.835456  1.843536 -0.610701
H -2.341073  0.243633 -1.23976 
H -2.155197  2.276504 -2.847393
H -0.767646  2.798168 -1.848184
H  1.439944  0.761525 -3.239663
H  1.006266  1.356413 -1.615235
H -0.048279 -0.855676 -1.093976
H  0.349423 -1.431333 -2.736151
H  1.862993 -3.136324 -1.621074
H  3.177442 -2.442113 -0.631406
H  1.501986 -2.443893 -0.013784
