30

C  0.294505 -0.714809  4.343481
O -0.69185  -0.451321  3.370619
C -0.232518  0.256733  2.237768
C -1.437097  0.446151  1.320224
O -0.965088  1.11544   0.166334
C -1.90178   1.240473 -0.891425
C -1.197085  1.912525 -2.080029
O -0.721483  0.978391 -3.026888
C  0.608861  0.520308 -2.902415
C  0.742789 -0.612279 -1.87825 
O  2.029322 -1.171444 -2.074137
C  2.358505 -2.208703 -1.179189
H 0.722713 0.216    4.741077
H -0.195081 -1.259613  5.152878
H  1.10693  -1.330632  3.93257 
H  0.550411 -0.309391  1.70709 
H 0.180921 1.236878 2.522978
H -2.212116  1.038363  1.830548
H -1.862059 -0.535467  1.059655
H -2.756979  1.85483  -0.568116
H -2.277479  0.252151 -1.195948
H -1.920843  2.545591 -2.608601
H -0.381466  2.547759 -1.706202
H  0.893856  0.133361 -3.887577
H  1.288111  1.3451   -2.639739
H  0.644265 -0.228418 -0.853426
H -0.044207 -1.363634 -2.050541
H  1.669026 -3.059041 -1.27962 
H  3.370353 -2.53591  -1.426603
H  2.336573 -1.859394 -0.136494
