30

C  0.586278 -0.676949  4.105811
O -0.476621 -0.390789  3.224443
C -0.101759  0.30764   2.054381
C -1.37263   0.499125  1.231421
O -0.987345  1.164101  0.043298
C -1.980676  1.248545 -0.964322
C -1.352643  1.930526 -2.185818
O -0.55917   1.058106 -2.957796
C  0.701894  0.686117 -2.426497
C  0.664233 -0.758932 -1.921605
O  1.973584 -1.060744 -1.476034
C  2.119746 -2.336763 -0.896605
H 1.068193 0.243708 4.463621
H  0.159399 -1.212689  4.95582 
H  1.345503 -1.309226  3.624105
H  0.633938 -0.267151  1.469696
H 0.338094 1.286735 2.300677
H -2.105213  1.094815  1.797542
H -1.818571 -0.481907  1.006471
H -2.836455  1.846195 -0.611111
H -2.341954  0.245876 -1.238887
H -2.154048  2.277913 -2.848164
H -0.766825  2.798923 -1.848159
H  1.440835  0.761531 -3.234811
H  1.004347  1.354675 -1.61048 
H -0.059085 -0.859046 -1.099668
H  0.358921 -1.433392 -2.737178
H  1.867253 -3.133512 -1.610683
H  3.166783 -2.436612 -0.603358
H  1.484006 -2.446817 -0.00609 
