30

C  0.526379 -0.5654    4.21216 
O -0.522464 -0.304487  3.306397
C -0.110103  0.215329  2.058697
C -1.375589  0.437734  1.234911
O -0.976767  1.110094  0.055281
C -1.970759  1.229996 -0.948182
C -1.34181   1.944088 -2.150632
O -0.556266  1.090256 -2.950754
C  0.710625  0.706751 -2.442502
C  0.677885 -0.746364 -1.960772
O  2.001677 -1.069284 -1.576693
C  2.155084 -2.349127 -1.008212
H 1.085106 0.350273 4.45142 
H  0.069835 -0.956232  5.123503
H  1.225989 -1.311461  3.809547
H  0.56039  -0.487018  1.538472
H 0.419601 1.172675 2.185281
H -2.091467  1.045027  1.810347
H -1.847329 -0.528163  0.998335
H -2.822041  1.822573 -0.575999
H -2.338814  0.238056 -1.251167
H -2.143593  2.315255 -2.799629
H -0.750215  2.798958 -1.789557
H  1.438286  0.792976 -3.259854
H  1.025978  1.362199 -1.620597
H -0.010641 -0.853807 -1.110407
H  0.331052 -1.40288  -2.774384
H  1.856135 -3.139711 -1.711125
H  3.213151 -2.46644  -0.765357
H  1.560693 -2.451867 -0.088506
