30

C 0.461962 0.110767 4.356866
O -0.581674  0.182745  3.411884
C -0.233275 -0.250212  2.110531
C -1.431013  0.022537  1.192786
O -0.980576  0.862561  0.14414 
C -1.934499  1.150328 -0.863084
C -1.255211  2.03947  -1.91152 
O -0.440183  1.314756 -2.804677
C  0.79803   0.833454 -2.309288
C  0.730452 -0.679292 -2.081272
O  2.033133 -1.085758 -1.704379
C  2.15981  -2.456376 -1.405158
H 1.315558 0.735184 4.0579  
H 0.060571 0.479859 5.302588
H  0.810476 -0.923167  4.49162 
H  0.021922 -1.3222    2.11697 
H 0.638375 0.309386 1.73758 
H -2.224449  0.520209  1.770879
H -1.835919 -0.91575   0.782369
H -2.796794  1.685456 -0.43349 
H -2.295848  0.223363 -1.334275
H -2.028099  2.516401 -2.525446
H -0.675763  2.820434 -1.396398
H  1.56525   1.043299 -3.065871
H  1.077988  1.33749  -1.375534
H  0.004721 -0.917882 -1.290332
H  0.412545 -1.182245 -3.008256
H  1.903514 -3.082098 -2.271987
H  3.203276 -2.62946  -1.134108
H  1.515729 -2.743258 -0.561017
