30

C  0.515971 -0.660767  4.146528
O -0.52303  -0.356635  3.242907
C -0.105991  0.297589  2.061686
C -1.358778  0.522288  1.219438
O -0.937185  1.153573  0.027292
C -1.931001  1.279036 -0.996586
C -1.392204  1.891124 -2.100089
O -0.599277  1.035368 -2.925331
C  0.681692  0.672167 -2.441086
C  0.67347  -0.769888 -1.925211
O  2.008201 -1.073285 -1.563082
C  2.184176 -2.337126 -0.966228
H 1.027807 0.249643 4.48865 
H  0.05721  -1.158412  5.003049
H  1.256957 -1.333283  3.691713
H  0.611721 -0.32109   1.499804
H 0.371373 1.263255 2.290487
H -2.075296  1.15306   1.768454
H -1.838387 -0.445444  1.005232
H -2.776195  1.868237 -0.591706
H -2.330435  0.274666 -1.230121
H -2.18794   2.248886 -2.772081
H -0.789586  2.775006 -1.819061
H  1.386935  0.74392  -3.279442
H  1.015374  1.349029 -1.644064
H  0.004448 -0.863812 -1.057853
H  0.314618 -1.447882 -2.715726
H  1.876807 -3.147499 -1.642539
H  3.248124 -2.440375 -0.743343
H  1.610433 -2.421348 -0.031672
