30

C  0.590904 -0.673954  4.101886
O -0.473516 -0.390503  3.221477
C -0.101454  0.308798  2.051042
C -1.373664  0.497657  1.229522
O -0.991252  1.163314  0.040632
C -1.985023  1.244986 -0.967067
C -1.351722  1.931506 -2.183981
O -0.554452  1.06188  -2.954982
C  0.704431  0.688555 -2.419516
C  0.664171 -0.757937 -1.918987
O  1.972158 -1.062602 -1.4713  
C  2.115551 -2.34049  -0.895343
H 1.070916 0.247925 4.459099
H  0.166128 -1.210603  4.952368
H  1.351198 -1.304454  3.619549
H  0.634862 -0.26439   1.465535
H 0.336599 1.288802 2.296943
H -2.106676  1.091982  1.796505
H -1.817921 -0.484255  1.005277
H -2.842464  1.84041  -0.614481
H -2.342743  0.241944 -1.243886
H -2.150032  2.280531 -2.849563
H -0.768441  2.799113 -1.840547
H  1.446876  0.766014 -3.224395
H  1.003514  1.354803 -1.600459
H -0.061124 -0.859855 -1.099012
H  0.359942 -1.429485 -2.737339
H  1.863791 -3.13483  -1.61234 
H  3.161791 -2.442409 -0.6     
H  1.477663 -2.452452 -0.006619
