30

C  1.047375 -0.950375  3.506214
O -0.068388 -0.757229  2.665865
C -0.017122  0.420679  1.881022
C -1.330748  0.488974  1.102486
O -1.125821  1.397753  0.037506
C -2.041874  1.34075  -1.042154
C -1.354196  1.943705 -2.275135
O -0.494694  1.034461 -2.928295
C  0.702703  0.676584 -2.255568
C  0.612274 -0.771177 -1.760098
O  1.667788 -0.960612 -0.836404
C  1.654035 -2.208968 -0.178003
H  1.148016 -0.130526  4.231303
H  0.883806 -1.886632  4.04356 
H  1.978071 -1.024819  2.926417
H 0.823472 0.383306 1.171571
H 0.100878 1.309978 2.519324
H -2.154941  0.820062  1.752904
H -1.572219 -0.51474   0.720714
H -2.949348  1.920034 -0.806388
H -2.336129  0.302222 -1.252529
H -2.117763  2.217835 -3.012076
H -0.808855  2.850021 -1.971689
H  1.532959  0.773734 -2.967319
H  0.894777  1.338881 -1.402725
H -0.361908 -0.937399 -1.276905
H  0.698194 -1.473478 -2.604082
H  1.733949 -3.039395 -0.893409
H  2.518221 -2.226529  0.489239
H  0.737498 -2.337099  0.414675
