30

C  0.60448  -0.716305  4.065212
O -0.463602 -0.418541  3.194029
C -0.103968  0.339352  2.056543
C -1.375672  0.526185  1.233489
O -0.991561  1.181745  0.039744
C -1.983793  1.252981 -0.969977
C -1.355893  1.923379 -2.19797 
O -0.5591    1.044818 -2.959435
C  0.70035   0.678412 -2.420259
C  0.661582 -0.762727 -1.904316
O  1.969921 -1.061429 -1.453651
C  2.114453 -2.333048 -0.864139
H 1.061962 0.199509 4.465043
H  0.189778 -1.300004  4.889273
H  1.380586 -1.306999  3.558248
H  0.649462 -0.190242  1.452018
H 0.30812  1.318606 2.34613 
H -2.109906  1.124688  1.794346
H -1.819233 -0.457698  1.016135
H -2.841294  1.852647 -0.624277
H -2.342596  0.24668  -1.234132
H -2.157509  2.260973 -2.865163
H -0.773284  2.797251 -1.869082
H  1.442613  0.748023 -3.226018
H  0.998833  1.353747 -1.608409
H -0.063404 -0.856603 -1.083147
H  0.357757 -1.443176 -2.715455
H  1.863545 -3.135159 -1.572748
H  3.160777 -2.430839 -0.567658
H  1.476607 -2.436224  0.025645
