30

C  0.485583 -0.751647  4.182733
O -0.530877 -0.50579   3.227951
C -0.151395  0.216541  2.07525 
C -1.412636  0.376403  1.23    
O -1.031288  1.083351  0.065053
C -2.014318  1.16162  -0.953357
C -1.408253  1.929261 -2.13441 
O -0.566248  1.133429 -2.936775
C  0.710464  0.80605  -2.413944
C  0.745002 -0.655331 -1.958014
O  2.079905 -0.920109 -1.567933
C  2.291388 -2.202024 -1.022972
H  0.649888 -1.83195   4.274661
H  1.429904 -0.272907  3.901508
H  0.166951 -0.357796  5.154448
H  0.61211  -0.326524  1.496086
H 0.248621 1.20811  2.337605
H -2.178507  0.930161  1.794629
H -1.815496 -0.615654  0.974492
H -2.904039  1.698645 -0.586869
H -2.319883  0.155038 -1.276763
H -2.219738  2.267701 -2.789203
H -0.86924   2.808548 -1.75028 
H  1.44542   0.943632 -3.217608
H  0.978763  1.462352 -1.57616 
H  0.055891 -0.812055 -1.115861
H  0.437351 -1.312817 -2.78648 
H  2.040514 -2.992059 -1.745052
H  3.351313 -2.270983 -0.769878
H  1.692861 -2.353197 -0.112838
