30

C  1.01701  -1.09081   3.358477
O -0.040288 -0.824863  2.463261
C -0.088004  0.510846  1.991047
C -1.380897  0.669571  1.181673
O -1.04893   1.352662 -0.013395
C -2.016113  1.320665 -1.04806 
C -1.356769  1.87599  -2.317286
O -0.524855  0.939323 -2.963939
C  0.696304  0.60734  -2.320973
C  0.607083 -0.791434 -1.703248
O  1.764778 -0.963125 -0.908279
C  1.786674 -2.164767 -0.169373
H  0.936812 -0.473531  4.264379
H  0.943608 -2.144492  3.634533
H  1.994418 -0.907036  2.891303
H 0.772526 0.715083 1.335063
H -0.060364  1.217824  2.83454 
H -2.141857  1.227716  1.748906
H -1.781994 -0.329878  0.954379
H -2.885727  1.944414 -0.783699
H -2.36424   0.292144 -1.225753
H -2.139512  2.135329 -3.039534
H -0.794984  2.786141 -2.057296
H  1.48947   0.623917 -3.079654
H  0.945661  1.33461  -1.538363
H -0.300585 -0.872826 -1.088195
H  0.5549   -1.555935 -2.494706
H  1.79009  -3.042066 -0.832031
H  2.704469 -2.159739  0.422442
H  0.921326 -2.233076  0.5038  
