30

C  0.912021 -0.923439  3.679343
O -0.249501 -0.618432  2.951385
C -0.027922  0.448633  1.883532
C -1.348295  0.554627  1.140142
O -1.105315  1.389567  0.023377
C -2.044699  1.33185  -1.035765
C -1.378151  1.930757 -2.28159 
O -0.517707  1.024014 -2.936658
C  0.688733  0.680824 -2.272869
C  0.616048 -0.765871 -1.771862
O  1.69786  -0.947608 -0.876615
C  1.825059 -2.256889 -0.366252
H  1.30076  -0.045596  4.215639
H  0.633848 -1.68905   4.407908
H  1.707109 -1.320731  3.031239
H 0.773819 0.119252 1.216725
H 0.245953 1.385918 2.375966
H -2.128429  0.978868  1.790399
H -1.667736 -0.44827   0.818894
H -2.946143  1.913684 -0.783742
H -2.344534  0.292773 -1.236771
H -2.152979  2.19136  -3.011575
H -0.837845  2.844665 -1.992165
H  1.512031  0.78049  -2.992363
H  0.883422  1.34884  -1.425409
H -0.34387  -0.938154 -1.262286
H  0.685101 -1.466979 -2.618123
H  2.013961 -2.981793 -1.170348
H  2.674983 -2.250836  0.319074
H  0.922428 -2.562476  0.180789
