30

C  0.485857 -0.75491   4.180785
O -0.531794 -0.505065  3.22819 
C -0.152591  0.217859  2.075761
C -1.41359   0.376185  1.229876
O -1.032421  1.083338  0.064997
C -2.015156  1.160691 -0.953766
C -1.409292  1.928711 -2.134674
O -0.56629   1.13349  -2.936593
C  0.710443  0.807194 -2.413142
C  0.745906 -0.654103 -1.957021
O  2.080841 -0.917815 -1.566319
C  2.293135 -2.199634 -1.021454
H  0.62047  -1.836873  4.295548
H  1.44014  -0.310374  3.878397
H  0.189474 -0.329772  5.146683
H  0.611822 -0.324368  1.497077
H 0.246114 1.209964 2.338185
H -2.180353  0.929211  1.794007
H -1.815234 -0.616366  0.974352
H -2.905454  1.697016 -0.587653
H -2.319769  0.153823 -1.277181
H -2.220805  2.266379 -2.789832
H -0.871177  2.808501 -1.750438
H  1.445662  0.945256 -3.216484
H  0.977836  1.463806 -1.575314
H  0.05654  -0.811262 -1.115153
H  0.439129 -1.311918 -2.785549
H  2.043288 -2.989767 -1.743783
H  3.352993 -2.267738 -0.767844
H  1.694285 -2.35146  -0.111641
