30

C  0.558694 -0.644907  4.150217
O -0.482844 -0.377368  3.236171
C -0.086594  0.285744  2.059464
C -1.361788  0.480111  1.23636 
O -0.978739  1.149428  0.050062
C -1.97405   1.23874  -0.955128
C -1.350651  1.931891 -2.172709
O -0.557361  1.067659 -2.95406 
C  0.704049  0.690481 -2.427199
C  0.66624  -0.759841 -1.937588
O  1.97764  -1.069822 -1.50375 
C  2.125117 -2.354238 -0.943543
H 1.046914 0.282627 4.480628
H  0.106301 -1.139652  5.011751
H  1.317126 -1.306807  3.709918
H  0.650748 -0.228224  1.424936
H 0.338666 1.27573  2.30003 
H -2.095126  1.072239  1.804978
H -1.805967 -0.501168  1.008391
H -2.830513  1.831802 -0.595721
H -2.333672  0.237383 -1.236481
H -2.154734  2.282422 -2.830195
H -0.766273  2.79913  -1.82971 
H  1.442737  0.773943 -3.234922
H  1.006838  1.350778 -1.604635
H -0.051975 -0.867452 -1.112126
H  0.353975 -1.424338 -2.758689
H  1.868361 -3.140274 -1.66791 
H  3.173424 -2.459452 -0.656782
H  1.493467 -2.476562 -0.051734
