30

C  0.57686  -0.675483  4.114783
O -0.482727 -0.39545   3.227175
C -0.105099  0.300347  2.056541
C -1.375319  0.496346  1.233602
O -0.988047  1.159548  0.045118
C -1.980862  1.244468 -0.963004
C -1.35381   1.930124 -2.182939
O -0.558898  1.060807 -2.956806
C  0.7033    0.690515 -2.426989
C  0.668428 -0.755083 -1.923418
O  1.98155  -1.059333 -1.490746
C  2.130605 -2.334829 -0.910964
H 1.119632 0.239202 4.390684
H  0.135103 -1.118514  5.009191
H  1.290179 -1.386176  3.673142
H  0.628364 -0.27725   1.471716
H 0.338504 1.277759 2.302707
H -2.105463  1.095005  1.799758
H -1.825018 -0.483056  1.009135
H -2.837553  1.840407 -0.60896 
H -2.340732  0.241912 -1.239658
H -2.156103  2.276989 -2.844566
H -0.770021  2.799191 -1.843616
H  1.441366  0.767519 -3.235918
H  1.005464  1.359127 -1.610896
H -0.047078 -0.855384 -1.094706
H  0.35439  -1.427872 -2.737056
H  1.868613 -3.13204  -1.621092
H  3.180408 -2.436891 -0.628565
H  1.503974 -2.441907 -0.01363 
