30

C  0.570947 -0.680626  4.107257
O -0.484902 -0.389422  3.230078
C -0.104391  0.302442  2.05669 
C -1.373737  0.498185  1.232547
O -0.984588  1.156688  0.042118
C -1.978522  1.24387  -0.964799
C -1.352183  1.929944 -2.184849
O -0.560483  1.060082 -2.961307
C  0.702678  0.687887 -2.435231
C  0.666983 -0.757052 -1.929808
O  1.983148 -1.065989 -1.509866
C  2.132389 -2.340254 -0.927488
H 1.04249  0.222111 4.533744
H  0.160778 -1.120991  5.023259
H  1.326005 -1.335018  3.658681
H  0.627927 -0.279599  1.475248
H 0.341276 1.279409 2.299936
H -2.102897  1.100212  1.79639 
H -1.825333 -0.481064  1.011182
H -2.833958  1.84056  -0.609044
H -2.33999   0.242024 -1.241924
H -2.154955  2.279401 -2.844535
H -0.76601   2.797325 -1.845324
H  1.438045  0.76223  -3.246852
H  1.008973  1.357144 -1.621179
H -0.040601 -0.853931 -1.093918
H  0.342343 -1.429238 -2.739774
H  1.859283 -3.138564 -1.632172
H  3.184609 -2.446282 -0.655752
H  1.514688 -2.441484 -0.023287
