30

C  0.581974 -0.672826  4.107398
O -0.486983 -0.385226  3.233751
C -0.117812  0.301049  2.054489
C -1.40161   0.49668   1.242312
O -0.998768  1.154852  0.046889
C -1.986157  1.240696 -0.966058
C -1.352884  1.928367 -2.181792
O -0.5551    1.060183 -2.954038
C  0.704931  0.688824 -2.420034
C  0.667602 -0.756839 -1.916797
O  1.98162  -1.06547  -1.489921
C  2.128392 -2.340154 -0.907888
H 1.074484 0.246811 4.453184
H  0.159045 -1.198384  4.96571 
H  1.331594 -1.314901  3.623617
H  0.606679 -0.28494   1.467108
H 0.332704 1.278065 2.288958
H -2.067182  1.159587  1.808471
H -1.789747 -0.497247  0.988684
H -2.845034  1.836223 -0.616425
H -2.344508  0.238604 -1.246702
H -2.151846  2.277328 -2.846365
H -0.769963  2.796247 -1.837962
H  1.445615  0.765014 -3.226638
H  1.00501   1.357402 -1.603114
H -0.044544 -0.855353 -1.084984
H  0.347919 -1.428169 -2.729447
H  1.859505 -3.138008 -1.614721
H  3.179185 -2.445894 -0.630558
H  1.505888 -2.442523 -0.007107
