30

C  0.884904 -0.839198  3.715753
O -0.258158 -0.550471  2.94308 
C -0.048052  0.393542  1.910662
C -1.369771  0.511164  1.145842
O -1.094829  1.335789  0.037893
C -2.037429  1.324997 -1.02067 
C -1.362613  1.948259 -2.249576
O -0.506261  1.051836 -2.923475
C  0.699592  0.691677 -2.26784 
C  0.622254 -0.763089 -1.792361
O  1.718649 -0.970039 -0.920738
C  1.844309 -2.288732 -0.436153
H 1.264786 0.060028 4.220953
H  0.585783 -1.573243  4.466628
H  1.688896 -1.262684  3.096958
H 0.746403 0.061044 1.225191
H 0.236547 1.373955 2.32418 
H -2.148441  0.839134  1.849394
H -1.662254 -0.497518  0.805621
H -2.928363  1.914657 -0.751149
H -2.354322  0.296563 -1.249694
H -2.133783  2.231403 -2.975091
H -0.817133  2.851514 -1.937053
H  1.522031  0.800035 -2.987091
H  0.898725  1.344213 -1.409347
H -0.329613 -0.93643  -1.268536
H  0.6698   -1.448582 -2.652862
H  2.012743 -3.00098  -1.25608 
H  2.706378 -2.301599  0.233765
H  0.94923  -2.597246  0.121815
