30

C -0.247068 -0.218855  4.298839
O  0.394612 -0.76069   3.163733
C 0.486326 0.071502 2.030766
C -0.882824  0.385563  1.41468 
O -0.617618  1.054913  0.195752
C -1.742725  1.270728 -0.639919
C -1.259972  1.989432 -1.905811
O -0.679388  1.11785  -2.848008
C  0.623508  0.632493 -2.568818
C  0.569344 -0.828869 -2.114695
O  1.912946 -1.256297 -1.992688
C  2.075513 -2.547368 -1.45144 
H -1.332109 -0.130028  4.155079
H -0.056552 -0.907921  5.124609
H 0.159423 0.769328 4.555539
H  1.076307 -0.485912  1.294442
H 1.022001 1.005484 2.26337 
H -1.484686  1.024262  2.080187
H -1.43319  -0.551387  1.236209
H -2.487049  1.899083 -0.124528
H -2.215911  0.314196 -0.908524
H -2.124436  2.443381 -2.404414
H -0.555524  2.784721 -1.618541
H  1.206903  0.693019 -3.496585
H  1.119298  1.240976 -1.801503
H  0.045435 -0.91351  -1.151862
H  0.027638 -1.432628 -2.860004
H  1.593349 -3.309968 -2.079489
H  3.148831 -2.743139 -1.409895
H  1.657627 -2.610358 -0.436459
