30

C  1.3716   -0.215172  2.921652
O  0.354571 -0.146258  1.949661
C -0.897234  0.298444  2.438634
C -1.831003  0.581604  1.253115
O -1.100197  1.189585  0.210723
C -1.822237  1.405466 -0.987703
C -0.836384  1.906829 -2.056392
O -0.410691  0.872185 -2.917745
C  0.795272  0.202688 -2.606068
C  0.645676 -0.770892 -1.431855
O  1.749613 -1.658188 -1.511358
C  1.80243  -2.602142 -0.467013
H  1.128209 -0.943255  3.709108
H  2.280119 -0.534343  2.407727
H 1.546184 0.764607 3.388305
H -0.76906   1.202804  3.052596
H -1.341642 -0.506453  3.047728
H -2.655459  1.230294  1.59212 
H -2.26744  -0.367416  0.89771 
H -2.612632  2.156249 -0.823794
H -2.294484  0.473027 -1.332554
H -1.344802  2.646536 -2.688145
H  0.017428  2.392803 -1.563735
H  1.06121  -0.369721 -3.501918
H  1.600808  0.923535 -2.398607
H  0.651092 -0.238374 -0.472244
H -0.304388 -1.320794 -1.52645 
H  0.926621 -3.267028 -0.482717
H  2.706485 -3.196741 -0.615254
H  1.850344 -2.109879  0.514495
