30

C  0.581623 -0.672094  4.111989
O -0.478616 -0.389911  3.226203
C -0.100271  0.303602  2.053961
C -1.370864  0.496521  1.231366
O -0.985976  1.16227   0.043519
C -1.979961  1.248082 -0.963344
C -1.352554  1.931051 -2.184598
O -0.559962  1.059122 -2.958014
C  0.701597  0.686576 -2.428325
C  0.664249 -0.758703 -1.924078
O  1.974412 -1.06136  -1.481461
C  2.12116  -2.337655 -0.902799
H 1.062307 0.250173 4.467316
H  0.152277 -1.204268  4.962998
H  1.342439 -1.306297  3.635335
H  0.638473 -0.274076  1.476215
H 0.340428 1.282956 2.29834 
H -2.102038  1.092446  1.798973
H -1.818255 -0.483721  1.005788
H -2.835277  1.84569  -0.608954
H -2.341794  0.245806 -1.238636
H -2.154293  2.279408 -2.846027
H -0.766169  2.798895 -1.846476
H  1.43961   0.762147 -3.237479
H  1.005166  1.354708 -1.61237 
H -0.057361 -0.858927 -1.100652
H  0.356899 -1.432579 -2.739368
H  1.866699 -3.134024 -1.616603
H  3.168776 -2.438157 -0.611853
H  1.487285 -2.447682 -0.010947
