30

C 0.45865  0.142848 4.355541
O -0.584225  0.206432  3.409152
C -0.243445 -0.265649  2.1194  
C -1.435165  0.005734  1.19355 
O -0.980192  0.849186  0.149608
C -1.931703  1.144938 -0.857555
C -1.249744  2.041825 -1.89762 
O -0.433448  1.323632 -2.79487 
C  0.803245  0.837165 -2.300732
C  0.73369  -0.677329 -2.08526 
O  2.035894 -1.088682 -1.712021
C  2.162012 -2.462927 -1.42967 
H 1.321719 0.745861 4.040296
H 0.063562 0.542705 5.291358
H  0.791089 -0.892535  4.517221
H -0.009436 -1.341993  2.153607
H 0.639222 0.267011 1.733325
H -2.234748  0.499167  1.76668 
H -1.833394 -0.933273  0.77806 
H -2.794713  1.677162 -0.425801
H -2.292432  0.221738 -1.336586
H -2.021079  2.524125 -2.509303
H -0.670791  2.818286 -1.37519 
H  1.572259  1.052305 -3.054003
H  1.081715  1.333411 -1.362377
H  0.00771  -0.921653 -1.296281
H  0.415059 -1.171977 -3.016457
H  1.906691 -3.077768 -2.304541
H  3.20513  -2.639525 -1.159544
H  1.51688  -2.76022  -0.589966
