30

C  0.58369  -0.676256  4.106359
O -0.480971 -0.388173  3.227703
C -0.107246  0.305706  2.054489
C -1.382275  0.500339  1.235534
O -0.991065  1.161478  0.04451 
C -1.982462  1.245702 -0.964963
C -1.35309   1.928999 -2.185066
O -0.557709  1.05786  -2.956425
C  0.703172  0.687067 -2.423864
C  0.665926 -0.757896 -1.918658
O  1.977801 -1.06286  -1.48272 
C  2.124666 -2.338284 -0.902238
H 1.070485 0.243418 4.460059
H  0.157493 -1.207978  4.959232
H  1.33876  -1.312878  3.62385 
H  0.623756 -0.273868  1.468705
H 0.337697 1.283442 2.296795
H -2.092986  1.119146  1.802103
H -1.812616 -0.484306  1.002782
H -2.839168  1.843    -0.613186
H -2.342876  0.243097 -1.240821
H -2.154107  2.275501 -2.848432
H -0.769089  2.798107 -1.846214
H  1.44283   0.762414 -3.231499
H  1.004435  1.356338 -1.607986
H -0.051517 -0.856542 -1.091407
H  0.353049 -1.431371 -2.732176
H  1.863924 -3.135527 -1.612793
H  3.173714 -2.440911 -0.617247
H  1.495787 -2.444764 -0.006406
