30

C  1.249413 -0.604368  2.866171
O  0.069732 -0.48131   2.103436
C -0.694965  0.67541   2.382007
C -1.765766  0.810647  1.302893
O -1.140744  1.290821  0.127819
C -1.941891  1.267419 -1.040382
C -1.107159  1.834994 -2.196273
O -0.306591  0.865586 -2.829374
C  0.878587  0.455313 -2.168016
C  0.663935 -0.842466 -1.379532
O  1.938911 -1.454065 -1.265454
C  1.930612 -2.692784 -0.596101
H  1.028306 -0.649278  3.942076
H  1.729901 -1.535738  2.561123
H 1.934463 0.234097 2.679396
H -0.056386  1.572314  2.372164
H -1.174301  0.595507  3.371475
H -2.546675  1.511144  1.641158
H -2.228252 -0.171572  1.120977
H -2.841267  1.888898 -0.898391
H -2.25933   0.240263 -1.275452
H -1.786597  2.216551 -2.967869
H -0.494729  2.667765 -1.818064
H  1.624972  0.261564 -2.948606
H  1.256459  1.249604 -1.5099  
H  0.243768 -0.642727 -0.384639
H -0.031148 -1.492902 -1.934178
H  1.313766 -3.432152 -1.127353
H  2.963285 -3.046639 -0.561273
H  1.549701 -2.591896  0.430182
