30

C -0.418704 -0.442506  4.110315
O  0.727072 -0.370731  3.292921
C 0.679112 0.278577 2.035163
C -0.722006  0.563708  1.490001
O -0.512534  1.150356  0.218068
C -1.681044  1.347574 -0.560779
C -1.260906  1.986862 -1.890075
O -0.75969   1.052487 -2.817239
C  0.553214  0.561632 -2.60238 
C  0.513878 -0.867892 -2.054793
O  1.855857 -1.315636 -2.020244
C  2.046796 -2.566133 -1.399334
H -1.219706 -1.039851  3.65348 
H -0.100159 -0.935565  5.0321  
H -0.814169  0.551389  4.363619
H  1.194346 -0.373259  1.314944
H 1.243834 1.222269 2.089506
H -1.277554  1.255927  2.141976
H -1.301499 -0.367832  1.391457
H -2.380358  2.019203 -0.037142
H -2.188277  0.389197 -0.748873
H -2.144313  2.43633  -2.358687
H -0.522433  2.777568 -1.688854
H  1.067636  0.554025 -3.571893
H  1.111927  1.207725 -1.912927
H  0.073087 -0.88267  -1.04769 
H -0.099362 -1.504017 -2.712665
H  1.498311 -3.362602 -1.922159
H  3.116359 -2.781814 -1.438525
H  1.721296 -2.54432  -0.349269
