30

C  1.299239 -0.449009  2.940291
O  0.178095 -0.432129  2.085256
C -0.808684  0.520992  2.428912
C -1.802733  0.627405  1.275769
O -1.1455    1.250915  0.189971
C -1.887278  1.31739  -1.015093
C -0.970037  1.889537 -2.107834
O -0.365305  0.886542 -2.893138
C  0.862739  0.342595 -2.4486  
C  0.672117 -0.765465 -1.405574
O  1.855301 -1.547202 -1.440986
C  1.851019 -2.640882 -0.553369
H  1.013492 -0.70099   3.971487
H  1.978184 -1.214398  2.560133
H 1.813972 0.52183  2.94229 
H -0.34719   1.506421  2.59921 
H -1.340696  0.218936  3.345895
H -2.674663  1.219745  1.598106
H -2.147121 -0.379027  0.990692
H -2.76435   1.972185 -0.883591
H -2.240045  0.318598 -1.312779
H -1.574252  2.492776 -2.796954
H -0.214263  2.537996 -1.641028
H  1.337589 -0.097176 -3.333496
H  1.52028   1.131284 -2.053701
H  0.517608 -0.349026 -0.401347
H -0.204952 -1.375071 -1.675966
H  1.04593  -3.349967 -0.794658
H  2.814877 -3.143775 -0.657479
H  1.726636 -2.311029  0.4876  
