30

C  0.587627 -0.690254  4.092134
O -0.481914 -0.385239  3.225079
C -0.112419  0.316075  2.054867
C -1.397304  0.52658   1.249666
O -0.995808  1.174895  0.045046
C -1.985579  1.250483 -0.965743
C -1.355801  1.927832 -2.189244
O -0.559177  1.053531 -2.955732
C  0.70142   0.686003 -2.420324
C  0.664241 -0.755853 -1.906306
O  1.978419 -1.061423 -1.477545
C  2.125596 -2.332621 -0.888048
H 1.084695 0.222078 4.450506
H  0.164256 -1.226753  4.943426
H  1.333494 -1.328172  3.597212
H  0.612487 -0.261001  1.460023
H 0.337054 1.290653 2.302636
H -2.031241  1.05852   1.742451
H -1.829399 -0.462081  1.018098
H -2.845171  1.847844 -0.620858
H -2.343009  0.245168 -1.236418
H -2.156626  2.270265 -2.854965
H -0.772762  2.799199 -1.85452 
H  1.441259  0.756102 -3.228264
H  1.002437  1.360543 -1.608693
H -0.047643 -0.848105 -1.073617
H  0.344335 -1.4332   -2.713861
H  1.856966 -3.134688 -1.590204
H  3.176427 -2.436424 -0.610104
H  1.503152 -2.429957  0.013323
