30

C  0.158659 -1.096094  4.064455
O -0.506925 -0.092176  3.331708
C -0.488068 -0.272094  1.930008
C -1.24214   0.908934  1.32602 
O -1.241286  0.718851 -0.074209
C -1.853013  1.755558 -0.813585
C -1.77868   1.443645 -2.334539
O -0.939449  0.372522 -2.671351
C  0.449853  0.524784 -2.422424
C  0.954394 -0.788776 -1.827629
O  2.331182 -0.610892 -1.550963
C  2.945599 -1.697681 -0.898841
H  1.222689 -1.149903  3.793845
H  0.069444 -0.831754  5.119872
H -0.2982   -2.082009  3.898771
H -0.981288 -1.214632  1.644611
H  0.545028 -0.290431  1.548317
H -0.740125  1.851132  1.597101
H -2.270209  0.936329  1.719909
H -1.347767  2.713565 -0.602898
H -2.909472  1.865461 -0.519048
H -2.775043  1.152066 -2.688353
H -1.483558  2.363619 -2.866824
H  0.977971  0.740643 -3.363163
H  0.647238  1.340103 -1.716104
H  0.391394 -1.010828 -0.908919
H  0.797987 -1.613074 -2.540811
H  2.88714  -2.614353 -1.502967
H  3.994379 -1.4316   -0.751864
H  2.482276 -1.890917  0.079896
