30

C -0.209983 -0.176961  4.329018
O  0.326012 -0.784848  3.17302 
C 0.444412 0.031469 2.030987
C -0.917431  0.353791  1.402178
O -0.639372  1.035412  0.193093
C -1.75487   1.257259 -0.653805
C -1.25886   1.990658 -1.906049
O -0.664307  1.130785 -2.850345
C  0.63638   0.645909 -2.560401
C  0.58066  -0.820221 -2.122096
O  1.923858 -1.246234 -1.99059 
C  2.083346 -2.543194 -1.462755
H -1.281215  0.039979  4.221792
H -0.074118 -0.886792  5.147813
H 0.318069 0.755938 4.570981
H  1.034877 -0.54059   1.306574
H 0.984512 0.963528 2.259618
H -1.525007  0.985533  2.069167
H -1.466839 -0.580718  1.209316
H -2.507014  1.87825  -0.140857
H -2.222253  0.302454 -0.93823 
H -2.118493  2.447483 -2.410344
H -0.560255  2.784811 -1.601841
H  1.230745  0.717435 -3.480395
H  1.121274  1.247748 -1.780969
H  0.046993 -0.916066 -1.165699
H  0.048059 -1.417212 -2.879314
H  1.609075 -3.299306 -2.104505
H  3.156551 -2.737551 -1.412453
H  1.655206 -2.618748 -0.452887
