30

C  0.583095 -0.696667  4.12701 
O -0.487332 -0.416303  3.259304
C -0.084848  0.338473  2.034156
C -1.358841  0.514484  1.224121
O -0.984289  1.181408  0.033244
C -1.98139   1.252014 -0.972107
C -1.360136  1.926856 -2.201027
O -0.564014  1.051873 -2.967162
C  0.696831  0.684717 -2.431715
C  0.660188 -0.75901  -1.922874
O  1.967432 -1.056426 -1.468571
C  2.116524 -2.336178 -0.897886
H 1.05888  0.223356 4.495787
H  0.165161 -1.245182  4.974328
H  1.347995 -1.318766  3.640091
H  0.657332 -0.244124  1.477076
H 0.341152 1.30458  2.325814
H -2.09406   1.104318  1.792611
H -1.796109 -0.470895  1.002022
H -2.839008  1.848283 -0.621068
H -2.338166  0.245256 -1.23698 
H -2.165198  2.26364  -2.864425
H -0.778585  2.801548 -1.872476
H  1.437941  0.759299 -3.238078
H  0.995527  1.356365 -1.616926
H -0.067892 -0.858928 -1.104994
H  0.361237 -1.436246 -2.738476
H  1.875739 -3.128638 -1.620678
H  3.161458 -2.431597 -0.595876
H  1.473386 -2.45751  -0.014231
