30

C -1.581042  0.590742  5.693174
O -1.167129  0.007909  4.477718
C -1.027767  0.914824  3.402643
C -0.589002  0.094216  2.193492
O -0.436787  1.002457  1.119517
C -0.04444   0.420869 -0.108681
C  0.023635  1.556147 -1.1453  
O -0.456096  1.151962 -2.409622
C  0.471601  0.622745 -3.330651
C  0.744341 -0.866301 -3.084275
O  1.537182 -1.305782 -4.168749
C  1.863126 -2.677731 -4.1495  
H -2.565337  1.069329  5.592586
H -1.647053 -0.21559   6.426138
H -0.85776   1.340148  6.044362
H -0.270307  1.682268  3.627479
H -1.981601  1.420419  3.18456 
H -1.350176 -0.66665   1.961083
H  0.360507 -0.418279  2.413933
H -0.771174 -0.335952 -0.443512
H  0.933714 -0.076356 -0.001178
H -0.619475  2.373323 -0.797961
H  1.05044   1.944053 -1.224038
H  0.024117  0.735388 -4.324514
H  1.419314  1.181693 -3.306682
H  1.27532  -1.013999 -2.130005
H -0.208865 -1.416585 -3.040389
H  0.960351 -3.303585 -4.182718
H  2.468571 -2.872734 -5.036655
H  2.441801 -2.938948 -3.252237
