30

C  0.576537 -0.679277  4.106541
O -0.482228 -0.388853  3.22825 
C -0.103665  0.304949  2.05592 
C -1.373756  0.50037   1.23277 
O -0.985872  1.160242  0.042671
C -1.979486  1.245588 -0.964671
C -1.352672  1.929496 -2.185699
O -0.559855  1.058455 -2.959734
C  0.702522  0.687051 -2.431163
C  0.666228 -0.757697 -1.925257
O  1.980282 -1.064262 -1.49707 
C  2.128604 -2.339105 -0.915693
H 1.053182 0.23071  4.504933
H  0.158509 -1.163426  4.994071
H  1.333524 -1.323338  3.642432
H  0.629053 -0.275216  1.472968
H 0.341    1.282278 2.29997 
H -2.103109  1.101254  1.79758 
H -1.82462  -0.479074  1.010787
H -2.835106  1.842863 -0.610317
H -2.340816  0.243244 -1.24018 
H -2.155132  2.277097 -2.846739
H -0.767247  2.79792  -1.847555
H  1.439487  0.761541 -3.241328
H  1.00693   1.356575 -1.616646
H -0.046368 -0.855211 -1.093698
H  0.347639 -1.430924 -2.736758
H  1.862041 -3.136915 -1.623443
H  3.179241 -2.443129 -0.637142
H  1.505163 -2.443207 -0.01578 
