30

C  0.16116  -0.62586   4.547455
O -0.752045 -0.479843  3.482791
C -0.295918  0.327357  2.416697
C -1.421571  0.370986  1.387233
O -0.943206  1.136422  0.297358
C -1.767157  1.137202 -0.856962
C -1.017211  1.908569 -1.959693
O -0.748747  1.085956 -3.078346
C  0.52559   0.479553 -3.134961
C  0.722842 -0.580764 -2.045129
O  1.962756 -1.203593 -2.323954
C  2.344903 -2.192402 -1.394865
H 0.401278 0.344482 5.004248
H -0.318141 -1.264577  5.291739
H  1.094524 -1.099393  4.211735
H  0.609564 -0.099108  1.955319
H -0.062769  1.346666  2.76253 
H -2.320289  0.8294    1.82758 
H -1.67148  -0.652914  1.069062
H -2.730539  1.621562 -0.632296
H -1.969937  0.109643 -1.192853
H -1.642105  2.733965 -2.322678
H -0.091775  2.329942 -1.544306
H  5.922960e-01 -1.479000e-03 -4.116486e+00
H  1.323218  1.234524 -3.057236
H  0.740376 -0.115424 -1.04786 
H -0.100695 -1.312175 -2.077546
H  1.619557 -3.017891 -1.367473
H  3.314192 -2.576698 -1.718452
H  2.441338 -1.774108 -0.382631
