30

C -0.397755 -0.379414  4.154118
O  0.669564 -0.507198  3.240884
C 0.647212 0.229474 2.034221
C -0.748708  0.516596  1.475877
O -0.531099  1.124952  0.215707
C -1.69285   1.324927 -0.572483
C -1.2632    1.984405 -1.888811
O -0.745152  1.065844 -2.82253 
C  0.567022  0.577805 -2.596632
C  0.526414 -0.8606   -2.073005
O  1.870382 -1.300293 -2.018628
C  2.056427 -2.561684 -1.418385
H -1.327624 -0.817568  3.767283
H -0.099255 -0.929901  5.0496  
H -0.583793  0.668132  4.430443
H  1.185764 -0.378879  1.295032
H 1.206848 1.171534 2.15007 
H -1.317289  1.193524  2.132652
H -1.317091 -0.419806  1.359144
H -2.401946  1.985098 -0.047373
H -2.191855  0.365917 -0.778399
H -2.144718  2.43358  -2.361231
H -0.532725  2.777729 -1.669376
H  1.095697  0.588695 -3.558432
H  1.112379  1.214934 -1.888433
H  0.065575 -0.894312 -1.075383
H -0.069288 -1.489966 -2.753113
H  1.524889 -3.35106  -1.968728
H  3.128047 -2.76964  -1.438559
H  1.708139 -2.562824 -0.375509
