30

C  0.576287 -0.66586   4.126594
O -0.487028 -0.38091   3.236282
C -0.106377  0.305595  2.061985
C -1.37569   0.503863  1.23815 
O -0.985605  1.159621  0.04638 
C -1.978966  1.245136 -0.961137
C -1.351663  1.927817 -2.182592
O -0.559713  1.0557   -2.956307
C  0.703266  0.68505  -2.428722
C  0.667446 -0.758371 -1.919006
O  1.983306 -1.065702 -1.496858
C  2.131838 -2.337277 -0.908479
H 1.076712 0.263686 4.421709
H  0.131156 -1.243115  4.936014
H  1.32856  -1.302465  3.633195
H  0.623725 -0.279969  1.480693
H 0.343016 1.282334 2.301126
H -2.102801  1.10878   1.801547
H -1.830252 -0.474362  1.018378
H -2.834159  1.843342 -0.607295
H -2.341102  0.242906 -1.23605 
H -2.153924  2.27579  -2.843693
H -0.765433  2.795915 -1.845001
H  1.438916  0.757077 -3.240303
H  1.00927   1.356652 -1.616491
H -0.040911 -0.852816 -1.083516
H  0.343763 -1.43315  -2.727199
H  1.858713 -3.138793 -1.609515
H  3.18391  -2.442441 -0.635818
H  1.513751 -2.434034 -0.004049
