30

C -0.273727 -0.169727  5.097008
O -0.98227  -0.276006  3.882429
C -0.470239  0.510931  2.826203
C -1.373532  0.265789  1.621165
O -0.848015  1.035419  0.556498
C -1.540382  0.914715 -0.673309
C -0.798357  1.792753 -1.697104
O -0.722177  1.15213  -2.956416
C  0.50841   0.554223 -3.301925
C  0.813911 -0.689414 -2.45812 
O  1.995532 -1.247796 -2.999035
C  2.458839 -2.404612 -2.339276
H -0.2838    0.861503  5.477045
H -0.77438  -0.822015  5.815038
H  0.770151 -0.493631  4.980929
H 0.563937 0.221021 2.581293
H -0.478814  1.580588  3.088637
H -2.404848  0.570806  1.856859
H -1.37576  -0.805995  1.368389
H -2.585914  1.241034 -0.559605
H -1.546011 -0.131426 -1.015267
H -1.332133  2.740694 -1.839103
H  0.204017  2.020162 -1.308969
H  0.421274  0.258168 -4.352682
H  1.337496  1.271946 -3.20534 
H  0.962234 -0.415564 -1.401617
H -0.023898 -1.402288 -2.520866
H  1.717687 -3.214995 -2.384481
H  3.368643 -2.720924 -2.85307 
H  2.692134 -2.19749  -1.285288
