30

C  0.557818 -0.651156  4.096495
O -0.482293 -0.330913  3.186433
C -0.141876  0.237951  2.099491
C -1.406949  0.4913    1.257646
O -0.989508  1.12021   0.061468
C -1.976744  1.232336 -0.949041
C -1.339498  1.928938 -2.157442
O -0.5595    1.061362 -2.948169
C  0.71067   0.685976 -2.442516
C  0.6798  -0.75292 -1.91961
O  2.013987 -1.080676 -1.576477
C  2.167463 -2.320514 -0.925805
H 1.088761 0.256859 4.411792
H  0.0979   -1.126861  4.963086
H  1.276331 -1.341225  3.634178
H  0.552475 -0.366352  1.465504
H 0.363991 1.224221 2.236549
H -2.106863  1.131857  1.816684
H -1.905077 -0.467662  1.046194
H -2.827291  1.833753 -0.589352
H -2.34828   0.238463 -1.241631
H -2.137368  2.300241 -2.811325
H -0.741753  2.782677 -1.803876
H  1.429139  0.745787 -3.270272
H  1.037747  1.363774 -1.643441
H  0.023594 -0.828911 -1.041193
H  0.29566  -1.427336 -2.701221
H  1.817402 -3.151409 -1.554838
H  3.233407 -2.447022 -0.725465
H  1.616866 -2.342749  0.026174
