30

C  0.601314 -0.674416  4.097947
O -0.473332 -0.396266  3.228648
C -0.114997  0.302944  2.054361
C -1.383827  0.496304  1.229505
O -0.992982  1.162475  0.044148
C -1.982172  1.249337 -0.967307
C -1.348808  1.93305  -2.185075
O -0.552784  1.061504 -2.955377
C  0.70593  0.68773 -2.41969
C  0.665346 -0.758461 -1.918251
O  1.972602 -1.062061 -1.46777 
C  2.115555 -2.339452 -0.890554
H 1.081413 0.249792 4.449038
H  0.187571 -1.211734  4.953399
H  1.359002 -1.302465  3.608307
H  0.620082 -0.269287  1.465909
H 0.323768 1.283434 2.298211
H -2.117572  1.09234   1.793918
H -1.830582 -0.4837    1.001284
H -2.838844  1.847148 -0.616455
H -2.343197  0.247477 -1.245031
H -2.147473  2.281776 -2.850056
H -0.764094  2.8007   -1.843676
H  1.448319  0.764592 -3.224679
H  1.005296  1.354272 -1.600897
H -0.06153  -0.860035 -1.099647
H  0.363114 -1.430873 -2.736655
H  1.865641 -3.134469 -1.607462
H  3.161276 -2.440562 -0.593077
H  1.475976 -2.451095 -0.002995
