30

C  0.494422 -0.727376  4.181021
O -0.523023 -0.511186  3.223396
C -0.14326   0.209738  2.06954 
C -1.406205  0.382416  1.229705
O -1.023447  1.088264  0.064542
C -2.007984  1.172879 -0.951882
C -1.398319  1.933937 -2.135353
O -0.563907  1.130379 -2.93796 
C  0.711137  0.793911 -2.416767
C  0.73539  -0.667375 -1.959903
O  2.067601 -0.940274 -1.566295
C  2.26932  -2.222409 -1.018092
H  0.946499 -1.719845  4.051236
H 1.276019 0.038888 4.121337
H  0.032601 -0.683806  5.172074
H  0.614313 -0.337428  1.48606 
H 0.26683  1.196334 2.335084
H -2.165049  0.941649  1.798462
H -1.818683 -0.605575  0.973821
H -2.892667  1.717475 -0.584349
H -2.322204  0.168294 -1.273191
H -2.208445  2.277455 -2.789185
H -0.851911  2.809737 -1.753714
H  1.446016  0.92573  -3.22147 
H  0.985408  1.448564 -1.579638
H  0.043158 -0.819023 -1.119385
H  0.425609 -1.323586 -2.788586
H  2.014452 -3.012323 -1.7389  
H  3.32827  -2.297989 -0.762821
H  1.668069 -2.367454 -0.108764
