30

C -0.235354 -0.204663  4.309483
O  0.371997 -0.769208  3.166669
C 0.472572 0.058455 2.03113 
C -0.894132  0.375197  1.410776
O -0.624694  1.048543  0.195027
C -1.746648  1.266221 -0.644394
C -1.259544  1.989763 -1.905853
O -0.674385  1.122058 -2.848826
C  0.62781   0.636836 -2.56619 
C  0.573165 -0.826215 -2.117582
O  1.916661 -1.253142 -1.992522
C  2.078234 -2.546287 -1.455973
H -1.317782 -0.073835  4.178468
H -0.061776 -0.901316  5.132562
H 0.211741 0.76703  4.561613
H  1.063024 -0.503341  1.298587
H 1.009597 0.991728 2.263043
H -1.497978  1.011605  2.076691
H -1.444082 -0.561045  1.227627
H -2.493591  1.892129 -0.129818
H -2.217891  0.310202 -0.918182
H -2.122448  2.44464  -2.406308
H -0.557004  2.784715 -1.613022
H  1.214817  0.70119  -3.491417
H  1.120024  1.243008 -1.794751
H  0.046028 -0.914786 -1.156875
H  0.034479 -1.427622 -2.866967
H  1.5987   -3.306642 -2.088739
H  3.151531 -2.74155  -1.411564
H  1.65694  -2.613667 -0.442675
