30

C  1.273428 -0.504764  2.953755
O  0.154418 -0.450136  2.097678
C -0.783699  0.55979   2.421456
C -1.791671  0.655986  1.279851
O -1.145968  1.263179  0.1777  
C -1.898974  1.307151 -1.021477
C -0.999101  1.880546 -2.127408
O -0.369172  0.879279 -2.8943  
C  0.862658  0.360893 -2.429552
C  0.67647  -0.763621 -1.403331
O  1.874098 -1.523448 -1.431113
C  1.876579 -2.630142 -0.559933
H  0.974806 -0.709557  3.9918  
H  1.908037 -1.318276  2.597496
H 1.842534 0.434864 2.927644
H -0.2814    1.529262  2.556699
H -1.312074  0.28959   3.350805
H -2.65788   1.256407  1.60327 
H -2.142219 -0.3533    1.014393
H -2.783379  1.951909 -0.889365
H -2.241004  0.300711 -1.305657
H -1.6202    2.453702 -2.827064
H -0.259822  2.557812 -1.675037
H  1.367415 -0.057753 -3.308265
H  1.491798  1.160918 -2.012212
H  0.499424 -0.363494 -0.396063
H -0.185227 -1.385203 -1.69493 
H  1.08614  -3.348377 -0.82165 
H  2.849674 -3.115914 -0.659394
H  1.734322 -2.318013  0.484224
