30

C  0.496255 -0.591786  4.223841
O -0.527516 -0.344914  3.28599 
C -0.094641  0.254085  2.08191 
C -1.349008  0.448069  1.226212
O -0.962876  1.115524  0.045055
C -1.966391  1.230852 -0.950292
C -1.346978  1.935474 -2.163167
O -0.571011  1.074569 -2.964901
C  0.70102   0.693545 -2.467638
C  0.672068 -0.754738 -1.971264
O  2.001891 -1.078762 -1.609484
C  2.159984 -2.349275 -1.021583
H 0.992258 0.340235 4.529093
H  0.025383 -1.050348  5.095475
H  1.252634 -1.278476  3.818311
H  0.635727 -0.38791   1.562674
H 0.374582 1.232065 2.270331
H -2.013933  1.062388  1.855914
H -1.825972 -0.517885  1.011017
H -2.812862  1.827474 -0.574082
H -2.338686  0.237525 -1.243018
H -2.154001  2.304359 -2.806968
H -0.750048  2.791267 -1.813206
H  1.419032  0.770221 -3.294404
H  1.027158  1.356793 -1.656233
H -2.250000e-04 -8.517020e-01 -1.106859e+00
H  0.307482 -1.417557 -2.77191 
H  1.842976 -3.150444 -1.704316
H  3.222093 -2.468166 -0.797876
H  1.583612 -2.432483 -0.088599
