30

C 0.972276 0.56646  2.201299
O -0.163109  0.1136    2.917359
C -0.958764 -0.863692  2.313405
C -1.87512  -0.377921  1.165735
O -1.241286  0.63453   0.407072
C -1.975365  1.077451 -0.720385
C -1.121085  2.099223 -1.480271
O -0.152928  1.500422 -2.313659
C  1.014854  0.996749 -1.69091 
C  0.962593 -0.530168 -1.581002
O  2.106482 -0.916277 -0.84003 
C  2.229959 -2.30469  -0.628876
H 0.724984 1.428353 1.571519
H 1.718251 0.871316 2.941333
H  1.394844 -0.226381  1.57341 
H -1.623471 -1.236921  3.105619
H -0.372653 -1.73469   1.970451
H -2.812327  0.019362  1.591241
H -2.130768 -1.240292  0.529152
H -2.91593   1.555008 -0.400262
H -2.219872  0.232378 -1.382178
H -1.774013  2.679507 -2.142848
H -0.648922  2.781626 -0.757883
H  1.873893  1.284133 -2.310885
H  1.147358  1.429402 -0.690922
H  0.043833 -0.845799 -1.067252
H  0.972273 -0.983116 -2.584674
H  2.304223 -2.849193 -1.580668
H  3.144675 -2.460174 -0.053532
H  1.375127 -2.700206 -0.061339
