30

C  0.745449 -0.65981   3.991167
O -0.431108 -0.44237   3.247742
C -0.223305  0.25995   2.04353 
C -1.482406  0.465939  1.210571
O -1.046781  1.149367  0.05183 
C -1.99793   1.257654 -0.993641
C -1.31608   1.956131 -2.176446
O -0.493673  1.092546 -2.927481
C  0.740063  0.703198 -2.346272
C  0.672599 -0.752761 -1.877134
O  1.952485 -1.065735 -1.359712
C  2.064782 -2.35551  -0.803291
H 1.216931 0.289877 4.281136
H  0.456524 -1.207274  4.890251
H  1.473131 -1.255949  3.422125
H  0.505811 -0.280857  1.41408 
H 0.208049 1.254341 2.255349
H -2.228085  1.060771  1.761416
H -1.934896 -0.503393  0.947999
H -2.863516  1.855279 -0.665184
H -2.353801  0.262348 -1.299866
H -2.087735  2.3166   -2.866581
H -0.742628  2.817034 -1.800652
H  1.517104  0.79412  -3.11633 
H  1.005462  1.351206 -1.501401
H -0.099334 -0.870055 -1.103007
H  0.417089 -1.408684 -2.724323
H  1.857962 -3.134711 -1.550613
H  3.092003 -2.462173 -0.448797
H  1.375843 -2.487077  0.043555
