30

C  0.578361 -0.671146  4.116174
O -0.481087 -0.387776  3.229788
C -0.101407  0.30549   2.058315
C -1.367139  0.495384  1.229578
O -0.983649  1.158552  0.043684
C -1.978046  1.24525  -0.962978
C -1.351724  1.929152 -2.18419 
O -0.559292  1.057991 -2.958525
C  0.703003  0.685972 -2.430099
C  0.666508 -0.759452 -1.926127
O  1.978696 -1.064209 -1.491055
C  2.126459 -2.340222 -0.912054
H 1.059851 0.250583 4.471783
H  0.14787  -1.20283   4.966897
H  1.338722 -1.306206  3.639948
H  0.634689 -0.273451  1.477886
H 0.340282 1.284325 2.302036
H -2.125948  1.116355  1.815246
H -1.822422 -0.481775  1.010356
H -2.832526  1.843092 -0.606923
H -2.340587  0.243421 -1.238482
H -2.154414  2.276826 -2.844896
H -0.766063  2.797505 -1.84628 
H  1.440292  0.76181  -3.239843
H  1.007069  1.354238 -1.614435
H -0.050533 -0.859075 -1.098634
H  0.353527 -1.432403 -2.740033
H  1.865913 -3.136788 -1.623431
H  3.175662 -2.442577 -0.627552
H  1.497944 -2.448037 -0.016134
