30

C 0.45291413 0.21610956 4.34531507
O -0.54787228  0.34307397  3.36977623
C -0.25410665 -0.28390926  2.07678165
C -1.4293371  -0.10048687  1.17777919
O -1.05869015  0.73633743  0.19341984
C -1.92404049  1.06899554 -0.89443636
C -1.17191363  2.0248611  -1.79817901
O -0.34062654  1.37029819 -2.75469617
C  0.79493626  0.83434391 -2.29543993
C  0.66895628 -0.60936362 -2.12020084
O  2.02196513 -1.06910343 -1.69761924
C  2.10866961 -2.44814205 -1.43777403
H 1.34004446 0.78534497 4.11524965
H 0.07228297 0.67806197 5.27981739
H  0.69219334 -0.81304204  4.50980022
H -8.58036869e-04 -1.41374068e+00  2.20122371e+00
H 0.59868177 0.24832307 1.67848425
H -2.11809419  0.4825081   1.7855795 
H -1.63816124 -1.12824565  0.77171914
H -2.82504031  1.43172687 -0.39931973
H -2.17622259  0.23452848 -1.48523157
H -1.72850817  2.72021489 -2.40063874
H -0.581313    2.59960359 -1.05303127
H  1.45643337  1.09337104 -3.25995566
H  1.16085506  1.27642792 -1.34436186
H -0.09242912 -0.68313116 -1.2234713 
H  0.4857968  -1.26885766 -3.03423721
H  1.85085549 -3.00737698 -2.44542804
H  3.13196221 -2.60632068 -1.19280791
H  1.45688279 -2.77857337 -0.64488414
