30

C  0.31158734 -0.74584844  4.353671  
O -0.66930036 -0.43119016  3.38448811
C -0.29346605  0.26652776  2.27036694
C -1.48968936  0.54760255  1.32538283
O -0.99205761  1.11270789  0.1747222 
C -1.89415124  1.28893935 -0.8424005 
C -1.15980724  1.94510228 -2.07638464
O -0.7295604   0.9181163  -3.01249494
C  0.61556693  0.53943061 -2.91828803
C  0.71218211 -0.74417785 -1.97341435
O  2.09762872 -1.19017573 -2.09809229
C  2.4317989  -2.13118154 -1.16396407
H 0.90966133 0.21207563 4.74528498
H -0.14599026 -1.20246003  5.18452449
H  0.95638517 -1.4651979   3.9086593 
H  0.29639662 -0.37678004  1.67083513
H 0.22931527 1.12569969 2.45942947
H -2.32322643  1.15662819  1.886413  
H -2.02032938 -0.36534841  1.1961088 
H -2.80011907  1.95577925 -0.45741674
H -2.28678179  0.29008304 -1.14815125
H -1.91352966  2.60097587 -2.52170197
H -0.333785    2.63033492 -1.72680403
H  0.99740776  0.19257141 -4.00509157
H  1.32409307  1.28605539 -2.44252017
H  0.50010201 -0.4484269  -1.03002866
H -0.00693928 -1.50375746 -2.19222136
H  1.81740977 -3.00726751 -1.19502267
H  3.33428441 -2.55823392 -1.42825034
H  2.28808572 -1.7987981  -0.14606291
