30

C  0.90897799 -0.9345102   3.67604472
O -0.27514642 -0.62089512  2.91882526
C -0.10624335  0.43960088  2.00134256
C -1.33707663  0.60432612  1.23280422
O -1.04613316  1.35769175  0.04868399
C -1.98945454  1.29329071 -1.03990043
C -1.35513461  1.88450879 -2.25426537
O -0.51159401  1.00887551 -2.95288006
C  0.71401522  0.5894644  -2.28963297
C  0.59460621 -0.78911448 -1.75087005
O  1.69095988 -0.88088237 -0.97998067
C  1.85144412 -2.19488468 -0.48279917
H  1.26698373 -0.12901607  4.36804518
H  0.62183081 -1.8212497   4.29786968
H  1.70143924 -1.20189998  2.88906287
H 0.67340558 0.36556121 1.28635693
H 0.11867662 1.45544542 2.46190536
H -2.09563536  1.12413788  1.75042605
H -1.80567871 -0.34376354  0.90855068
H -2.81201266  1.86322984 -0.79269549
H -2.37470357  0.24205389 -1.20358696
H -2.06839816  2.29956751 -3.05272633
H -0.7253757   2.72080558 -2.00345713
H  1.47997384  0.59686362 -3.06942825
H  0.93340702  1.31291079 -1.4947585 
H -0.33578351 -1.01820814 -1.28621996
H  0.56543269 -1.52942638 -2.60882641
H  2.19733225 -2.92279335 -1.29438643
H  2.61202575 -2.21997523  0.329011  
H  0.97191537 -2.66922538 -0.03881929
