30

C 0.98984599 0.49636521 2.19384546
O -0.17282011  0.11644229  2.87610129
C -0.97493027 -0.84152117  2.26512839
C -1.94064812 -0.35779603  1.18745576
O -1.20578141  0.5725987   0.36454956
C -2.00201217  1.09106896 -0.65385657
C -1.10405084  2.11455898 -1.44752342
O -0.2122942   1.47774337 -2.26767324
C  1.06137232  0.98548451 -1.7299178 
C  1.00448639 -0.55412883 -1.57949971
O  2.0888813  -0.89151365 -0.76514677
C  2.26805547 -2.28257772 -0.68865593
H 0.79970441 1.32627464 1.48718955
H 1.71176904 0.89850163 2.88442838
H  1.37921404 -0.31443213  1.66997749
H -1.55115707 -1.30536627  3.01102266
H -0.42116494 -1.61211098  1.87616755
H -2.80602012  0.23469155  1.61272024
H -2.3308075  -1.20763898  0.70544352
H -2.9359086   1.55994376 -0.31835421
H -2.26536997  0.29505053 -1.28879254
H -1.79113305  2.67727024 -2.09090519
H -0.67191112  2.83514548 -0.79326592
H  1.94426136  1.25542077 -2.41842768
H  1.26425101  1.42503886 -0.70407629
H  0.00130627 -0.71280315 -0.97252779
H  1.00191493 -1.16195585 -2.44379972
H  2.48472655 -2.76577542 -1.71418009
H  3.15993635 -2.45134379 -0.04270203
H  1.26277272 -2.71095282 -0.226559  
