30

C  1.27803979 -0.4588308   2.83672985
O  0.17929257 -0.3769432   2.01332385
C -0.79074977  0.46694617  2.42090184
C -1.80220636  0.65925033  1.32677437
O -1.17720699  1.21778682  0.22656603
C -1.89758636  1.28982004 -1.01350817
C -0.94446049  1.88191976 -2.07287951
O -0.35059477  0.86194849 -2.88362056
C  0.89890628  0.31391055 -2.49484252
C  0.66767382 -0.74812604 -1.37511437
O  1.86527572 -1.51622443 -1.44333412
C  1.82515558 -2.61017386 -0.5053442 
H  1.10010816 -0.89823205  3.83890794
H  2.08995213 -1.12478237  2.34868267
H 1.74693383 0.5784568  3.06807887
H -0.43675153  1.52122958  2.53999135
H -1.29715712  0.06438457  3.37611441
H -2.6492954   1.35988284  1.66689178
H -2.23494192 -0.27956524  1.11944782
H -2.78130525  2.02548886 -0.97023429
H -2.3812915   0.38672795 -1.34753293
H -1.38950363  2.47412217 -2.84432284
H -0.0822672   2.29818924 -1.5018924 
H  1.43046957 -0.1485828  -3.38323622
H  1.5092136   1.12754973 -2.12421019
H  0.60827757 -0.263817   -0.39572652
H -0.23222473 -1.3144952  -1.57607266
H  0.98774016 -3.2736645  -0.67863236
H  2.67971713 -3.1676105  -0.57997921
H  1.58586371 -2.30275086  0.4901181 
