30

C  0.37216927 -0.7448825   4.28243596
O -0.63990127 -0.49251997  3.29044243
C -0.23883665  0.3005548   2.18770688
C -1.45377283  0.46569438  1.33145796
O -0.96936814  1.17248634  0.18878582
C -1.91053657  1.27520522 -0.90067855
C -1.19699229  1.94828267 -2.10526191
O -0.71207923  0.99704477 -3.03267879
C  0.62498935  0.47365807 -2.90694977
C  0.70841323 -0.69241812 -1.85613966
O  2.02745851 -1.11659992 -1.94348473
C  2.3306858  -2.22424599 -1.10708517
H 0.69267855 0.2790597  4.51485551
H -0.07167586 -1.41768524  5.0789703 
H  1.20704428 -1.42072564  4.00837061
H  0.58914167 -0.17395773  1.69661647
H 0.06189057 1.36564852 2.58826455
H -2.27202862  0.96987947  1.73768286
H -1.84944996 -0.511465    1.02552188
H -2.91217198  1.7333729  -0.55817171
H -2.24523267  0.19973306 -1.1832267 
H -2.00292582  2.49623905 -2.5806026 
H -0.4229726   2.61342709 -1.70337107
H  0.8982468   0.04280647 -3.86855988
H  1.35513232  1.28179791 -2.71110211
H  0.47768506 -0.34087226 -0.80579941
H -0.08229405 -1.3682158  -2.04387972
H  1.78937714 -3.1234215  -1.36276648
H  3.4798155  -2.4573936  -1.17036863
H  2.17741995 -1.88266997 -0.10905766
