30

C 0.90671765 0.63590206 2.27992857
O -0.1585913   0.05342475  2.94142675
C -0.94832015 -0.88238956  2.26219701
C -1.85216135 -0.3351949   1.2613199 
O -1.23391707  0.64250218  0.40819254
C -1.96035522  1.06139215 -0.74831815
C -1.1236498   2.07694162 -1.47489446
O -0.14063447  1.51249267 -2.31575931
C  1.05582024  0.96249934 -1.74741298
C  0.94437204 -0.56445942 -1.61951462
O  2.084865   -0.91224487 -0.78699048
C  2.25160897 -2.31886998 -0.68394304
H 0.67906987 1.52607412 1.64254439
H 1.66981563 0.91865243 2.9691681 
H  1.37050096 -0.09082029  1.5681379 
H -1.6003658  -1.48659366  2.99986143
H -0.39990792 -1.67621198  1.8417735 
H -2.78789205  0.02453184  1.69336139
H -2.12027328 -1.16563612  0.57204358
H -2.91894617  1.47458406 -0.46912063
H -2.20182131  0.12361166 -1.29481447
H -1.75681676  2.64588763 -2.11084389
H -0.63672851  2.71469962 -0.83641077
H  1.89406205  1.27442486 -2.3974833 
H  1.22862258  1.34157239 -0.83305029
H -3.31733189e-04 -8.95389578e-01 -1.13123322e+00
H  0.98015034 -0.92787491 -2.70515658
H  2.48617333 -2.88950185 -1.70027177
H  3.0555862  -2.57130337  0.01423284
H  1.32024523 -2.77793401 -0.38523983
