30

C  0.58822307 -0.59701711  4.15797567
O -0.49725296 -0.3690966   3.2328825 
C -0.088435    0.25506128  2.02859217
C -1.39740457  0.40200225  1.20902344
O -0.98801196  1.1038685  -0.00670168
C -1.97531011  1.28805731 -0.91708694
C -1.3233391   1.93300125 -2.14344949
O -0.58839978  1.07363158 -2.96471704
C  0.71117571  0.6989291  -2.43077917
C  0.69129521 -0.71479834 -1.93061512
O  2.02494402 -1.07952303 -1.55550688
C  2.0837852  -2.30522176 -0.84876142
H 1.14742989 0.22311155 4.42099337
H  0.15019683 -1.09039686  5.0086291 
H  1.32144148 -1.23381301  3.77101147
H  0.57192752 -0.34515008  1.48819685
H 0.34421708 1.25243773 2.16545474
H -2.15482609  1.02657031  1.7991497 
H -1.74266659 -0.59321379  1.00914359
H -2.78362848  2.03629591 -0.65182749
H -2.40569162  0.31563459 -1.02545256
H -2.17294317  2.28725141 -2.8060932 
H -0.76653974  2.8518162  -1.86810544
H  1.44873655  0.87006999 -3.15017696
H  0.94684211  1.32102247 -1.45771768
H -0.06781663 -0.92004904 -1.19338328
H  0.35222536 -1.38244034 -2.74699058
H  1.81897894 -3.13165691 -1.56887758
H  3.07327199 -2.53551508 -0.54740399
H  1.37973115 -2.31524026 -0.04698997
