30

C  0.27528669 -0.55500199  4.35205386
O -0.64586988 -0.48699218  3.34002548
C -0.17851863  0.31488747  2.30437429
C -1.33618481  0.46010702  1.36428328
O -0.96961895  1.20014209  0.14930577
C -1.92350843  1.21697864 -0.96613534
C -1.26338163  1.90739399 -2.04922187
O -0.6470113   1.03584136 -3.01018217
C  0.66886973  0.51988166 -2.75872884
C  0.72239832 -0.74041907 -1.96335988
O  2.04012202 -1.14301075 -1.97429369
C  2.27984862 -2.23920062 -1.21842954
H 0.84444057 0.34206273 4.63947507
H -0.21689972 -1.08416427  5.16113973
H  1.10766941 -1.27151735  4.14367929
H  0.71354347 -0.24659608  1.84051324
H 0.28806536 1.36642599 2.50084722
H -2.10788343  0.98482648  1.84238612
H -1.62574281 -0.61167075  0.97209273
H -2.75391975  1.78966102 -0.71358778
H -2.26178823  0.16964437 -1.2282685 
H -1.98976597  2.62500628 -2.67354823
H -0.5612813   2.58503227 -1.634262  
H  1.14887878  0.40836313 -3.66023517
H  1.30950546  1.35036069 -2.30622728
H  0.31817121 -0.61008733 -1.02403437
H  0.08109182 -1.61023287 -2.46636214
H  1.81665347 -3.05224431 -1.61625415
H  3.36892375 -2.52514264 -1.30052126
H  2.13433092 -2.06414334 -0.08496644
