30

C  0.40075658 -0.76565339  4.23613151
O -0.62248244 -0.3306763   3.36501421
C -0.14547678  0.27749079  2.16854422
C -1.42034699  0.49982458  1.2815196 
O -0.98362532  1.18054586  0.18703317
C -1.93654568  1.23189421 -0.95544546
C -1.22060595  1.88254889 -2.1116299 
O -0.66358464  1.02763746 -3.05265931
C  0.63063854  0.58420955 -2.74520684
C  0.66655523 -0.79023086 -1.92104281
O  2.04787044 -1.08626082 -1.83619911
C  2.31989222 -2.2401064  -1.07185355
H 0.78354123 0.04064901 4.76248151
H -0.04235449 -1.39904551  4.92306397
H  1.20013591 -1.20233518  3.7853125 
H  0.58809586 -0.49680577  1.62646668
H 0.34044883 1.28857241 2.30592779
H -2.27094951  0.93143693  1.9064319 
H -1.74472784 -0.50901025  0.96971666
H -2.66692482  1.90028619 -0.72236265
H -2.23776828  0.24690572 -1.26345288
H -2.09258009  2.57180794 -2.55834684
H -0.442856    2.60697185 -1.71804379
H  1.06207815  0.47614575 -3.63677027
H  1.1209142   1.35774388 -2.29155547
H  0.07773726 -0.74805773 -0.94287374
H  0.06443776 -1.45387782 -2.50235086
H  1.64893666 -3.07343517 -1.44553945
H  3.40123343 -2.54046191 -1.22937364
H  2.06733748 -2.12039512 -0.04219107
