30

C  0.57267477 -0.7148232   4.15197607
O -0.56706334 -0.40613684  3.26952931
C -0.14999615  0.33029831  2.1327188 
C -1.37836147  0.55117512  1.33037068
O -1.04997944  1.18209015  0.06356957
C -2.00008853  1.22279899 -0.95971969
C -1.29171072  1.90862217 -2.15595066
O -0.55403917  0.99883353 -2.95709512
C  0.70946497  0.67537711 -2.49735233
C  0.70943139 -0.71431835 -1.9596859 
O  2.01225022 -1.06848145 -1.61266553
C  2.20680086 -2.35337958 -1.00208013
H 1.31935007 0.1749309  4.34534007
H  0.15464454 -0.91310952  5.14904227
H  1.12795434 -1.51979993  3.78248916
H  0.61427948 -0.25110294  1.43071108
H 0.30364523 1.26003587 2.45152208
H -2.08885094  1.23748916  1.92888131
H -1.84491223 -0.37950452  1.09045215
H -2.78717905  1.89315737 -0.64326522
H -2.32234594  0.22258687 -1.19959139
H -2.09217568  2.33286491 -2.90085863
H -0.77051967  2.79623184 -1.81327746
H  1.51079991  0.73939877 -3.30987737
H  0.97413859  1.34142708 -1.67174936
H -0.01118619 -0.73001663 -1.1739688 
H  0.35439918 -1.3642403  -2.74194498
H  1.91833799 -3.17867631 -1.5788864 
H  3.2035711  -2.37342177 -0.75947972
H  1.68757582 -2.38183388 -0.05010113
