30

C  0.33114718 -0.99692911  4.02639291
O -0.53674754 -0.1773628   3.28789117
C -0.26771324 -0.04555388  1.89859181
C -1.29958471  0.82826553  1.28175126
O -1.10769426  0.74354494 -0.11306619
C -1.95886328  1.6344989  -0.81025973
C -1.7255563   1.62917341 -2.34330522
O -0.84741188  0.51983284 -2.7081683 
C  0.49321309  0.59422958 -2.385796  
C  0.8836684  -0.78922317 -1.85842975
O  2.20384133 -0.73262662 -1.33755978
C  2.64568237 -1.93771285 -0.77271063
H  1.331514   -0.67023771  3.99394228
H -0.04351147 -0.96424359  5.02310842
H  0.29330662 -2.09740561  3.74417729
H -0.2776877  -1.04975189  1.47148862
H 0.79725461 0.1848775  1.81906295
H -1.33055061  1.83446134  1.62497084
H -2.34057233  0.51461411  1.66373165
H -1.79492395  2.63205893 -0.47632043
H -3.01476184  1.28785374 -0.57621825
H -2.68213464  1.45399439 -2.8272996 
H -1.23169163  2.56553953 -2.56116863
H  1.10532724  0.87182573 -3.28746655
H  0.65584379  1.47856579 -1.61496088
H  0.20238102 -1.09327745 -1.03355975
H  0.80620459 -1.63820919 -2.68623971
H  2.50847959 -2.78971261 -1.51010087
H  3.7123576  -1.70138099 -0.43274924
H  1.97844735 -2.19610941  0.1127601 
