30

C -0.37825194 -1.36524555  4.32879688
O -0.39583419 -0.27236241  3.43238093
C -0.90737431 -0.52224908  2.14364286
C -0.92320076  0.84610638  1.40431821
O -1.42637915  0.56503804  0.12301148
C -1.31429569  1.64605773 -0.79144637
C -1.81148454  1.20796164 -2.1287383 
O -1.06753825  0.12191716 -2.71796054
C  0.26628348  0.26575842 -2.90193106
C  1.02637433 -0.56134334 -1.89644689
O  2.36147972 -0.23021225 -1.98596023
C  3.19470201 -0.87907934 -1.17283427
H  0.4153307  -2.1087866   4.01648604
H -0.07794705 -0.90287716  5.20486916
H -1.36312945 -1.76071417  4.34530008
H -1.98424022 -0.67703443  2.11863492
H -0.371279   -1.27055607  1.49132529
H 0.16708213 1.21159304 1.36076531
H -1.61561734  1.53681781  2.02282508
H -0.2422487   1.90675247 -0.776836  
H -1.89897294  2.50238231 -0.56684717
H -2.69867925  0.78918195 -2.14323323
H -1.98136099  2.13669714 -2.62755612
H  0.48937158 -0.07341996 -3.89482428
H  0.58314076  1.37528865 -2.9279854 
H  0.69991479 -0.49575534 -0.83185438
H  0.94358539 -1.5827017  -2.12856195
H  3.00774124 -1.97654294 -1.31181865
H  4.23948942 -0.48518826 -1.44998136
H  2.91540989 -0.58546722 -0.21413683
