30

C  1.42282187 -0.31535769  2.94077389
O  0.31232423 -0.29003957  2.02703355
C -0.84356036  0.40948851  2.44677246
C -1.794646    0.57462033  1.22923158
O -1.10902299  1.07981973  0.12305915
C -1.86061996  1.4299758  -1.04333645
C -0.90794838  1.96242031 -2.09165241
O -0.41558193  0.93532884 -2.95514545
C  0.79465641  0.27772634 -2.52424835
C  0.66649864 -0.78907982 -1.40321712
O  1.79908866 -1.61264023 -1.42778308
C  1.76866274 -2.58275622 -0.45677439
H  0.97282559 -0.86919033  3.87287737
H  2.10195017 -0.91820158  2.57416111
H 1.87566758 0.6808386  3.13328259
H -0.4376599   1.31917054  2.82953641
H -1.40281086 -0.18583907  3.19755118
H -2.66214076  1.12513318  1.54798059
H -2.06484857 -0.41535121  0.86702476
H -2.73176131  2.10987315 -0.69307939
H -2.41264503  0.42770797 -1.34067511
H -1.4540471   2.61087097 -2.77389834
H -0.20693565  2.43505412 -1.52373174
H  1.29973912 -0.16502457 -3.23082564
H  1.50982634  1.04020139 -2.19488437
H  0.55368651 -0.35196363 -0.41902285
H -0.23659702 -1.43324291 -1.75196071
H  0.90358396 -3.32159618 -0.60145097
H  2.61142781 -3.2270712  -0.48373367
H  1.60559796 -2.1120007   0.47969783
