30

C  0.42158741 -0.64280038  4.23712796
O -0.60245914 -0.31652888  3.32308703
C -0.12887445  0.29528028  2.12813419
C -1.3701563   0.47031824  1.30064876
O -1.00064033  1.13398783  0.12000429
C -1.98042172  1.1791875  -0.9413612 
C -1.30619811  1.90499798 -2.0871262 
O -0.56740823  1.07637748 -2.98582938
C  0.7077286   0.66986493 -2.59855415
C  0.65364036 -0.71826467 -1.95803001
O  2.03277427 -1.1339977  -1.81413954
C  2.27188069 -2.37632581 -1.10329865
H 0.75783966 0.34574792 4.57751135
H -0.06343075 -1.17813072  5.18992124
H  1.23747768 -1.24465075  3.60813868
H  0.71207083 -0.30602427  1.61003047
H 0.31526654 1.31886208 2.31658812
H -2.08892209  1.11421273  1.80156243
H -1.79959458 -0.60344605  1.11997   
H -2.78860359  1.7935905  -0.58775716
H -2.34870566  0.24842853 -1.33983228
H -2.07649272  2.34777729 -2.71563112
H -0.72186847  2.77157115 -1.68341702
H  1.35292172  0.70839359 -3.45409596
H  1.13318889  1.36157336 -1.85981353
H  0.14882554 -0.77453821 -0.98260197
H  0.16195586 -1.42417718 -2.63382364
H  1.65173842 -3.18611676 -1.39988472
H  3.28851037 -2.63767945 -1.24641357
H  2.07235548e+00 -2.17287868e+00  1.73892232e-03
