30

C -0.06471688 -0.37183306  4.85348913
O -0.82214768 -0.42609178  3.65667018
C -0.39825326  0.38874372  2.59096264
C -1.41856948  0.32659464  1.47017018
O -0.87019552  1.08758626  0.43255965
C -1.66207253  1.06313965 -0.73672951
C -0.85883617  1.88499039 -1.81384089
O -0.76037077  1.16016825 -3.02857925
C  0.45576795  0.46380123 -3.24665072
C  0.73842588 -0.66350013 -2.28673345
O  1.99433869 -1.21560041 -2.6418398 
C  2.45542205 -2.29233906 -1.83223565
H -0.0127611   0.5940448   5.24461267
H -0.59919164 -1.1148972   5.46299715
H  0.92043996 -0.63364583  4.80367711
H 0.53222251 0.07251887 2.14587297
H -0.30515875  1.47153798  2.998417  
H -2.44732578  0.67427867  1.76935619
H -1.50814634 -0.66657099  1.21206857
H -2.64662099  1.38512519 -0.64382797
H -1.80327629 -0.00702646 -1.2047135 
H -1.47247019  2.82861639 -2.06297923
H  0.1888382   2.15171044 -1.37124947
H  0.35274183  0.02436791 -4.32991943
H  1.30431678  1.20438271 -3.20115135
H  0.71680172 -0.34470854 -1.21237099
H -0.08201288 -1.41038685 -2.29730758
H  1.72735732 -3.1098211  -1.90741918
H  3.41797832 -2.5707643  -2.30958761
H  2.52600107 -2.06316568 -0.76288262
