30

C  0.46618533 -0.01647985  4.38083033
O -0.57766699  0.04412033  3.38300447
C -0.16406936 -0.2040751   2.08308615
C -1.40041442  0.14284911  1.2134922 
O -0.9824248   0.91639022  0.12893555
C -1.92755836  1.16949783 -0.87328292
C -1.24834091  2.03203646 -1.97243243
O -0.50683516  1.24696329 -2.87260718
C  0.76968221  0.82875013 -2.36876111
C  0.7269204  -0.70902965 -2.06453319
O  2.01594656 -1.03440333 -1.57446011
C  2.16965397 -2.44013608 -1.35595282
H 1.2407253  0.72209608 4.04764242
H -0.01552548  0.2098486   5.40850983
H  0.98661538 -0.96653967  4.34471737
H  0.2780016  -1.15648691  1.89890278
H 0.52796345 0.52223625 1.73339256
H -2.10546552  0.7164163   1.78889049
H -1.84564035 -0.75412078  0.89645597
H -2.85143796  1.80740067 -0.54037961
H -2.41575591  0.20272388 -1.19941345
H -1.96605717  2.60045709 -2.62755432
H -0.70196752  2.83867338 -1.60000789
H  1.61486806  1.02813902 -3.05346828
H  0.93946814  1.36345743 -1.43412294
H -0.04669355 -0.84394476 -1.25681846
H  0.41572128 -1.25097339 -2.97005116
H  1.83498514 -3.02395109 -2.31988366
H  3.12506873 -2.64448833 -0.99134488
H  1.47564882 -2.82382556 -0.50953264
