30

C  0.48360593 -0.84896998  3.98234452
O -0.56693726 -0.34789594  3.1858367 
C -0.21792042  0.20895592  1.98579997
C -1.43544275  0.70143493  1.32080731
O -1.0202603   1.09529769  0.0077081 
C -2.01527536  1.52365853 -0.88641579
C -1.42983679  1.83611973 -2.2637186 
O -0.72380344  0.8022417  -2.8231148 
C  0.6202359   0.5139982  -2.38699955
C  0.72226638 -0.79536908 -1.78595118
O  2.16598522 -1.03353317 -1.58334479
C  2.5521662  -2.16148534 -0.82912756
H  1.32888038 -0.12676969  4.19817469
H  0.20091935 -1.10796892  4.96284956
H  0.82090372 -1.76289219  3.37921456
H  0.21726895 -0.69185143  1.33751736
H 0.50783456 1.13804041 2.04455348
H -1.79793128  1.50656605  1.75354377
H -2.18468925 -0.09648124  1.14831759
H -2.53357163  2.47745055 -0.49507556
H -2.82495279  0.78130062 -0.97270155
H -2.15053992  2.13452455 -2.97287834
H -0.82722856  2.75959148 -2.11357494
H  1.19796461  0.66045267 -3.27348961
H  0.72420212  1.41855935 -1.67543854
H  0.24839948 -0.98808895 -0.79733466
H  0.1716854  -1.53425034 -2.42301445
H  2.17173074 -3.15953585 -1.30221385
H  3.62047359 -2.09089267 -0.68832844
H  2.02454894 -2.21725446  0.05635537
