30

C -0.76167212  0.34093715  5.53353682
O -1.14456433 -0.14591318  4.17489766
C -0.71752617  0.81101262  3.23211629
C -1.29649419  0.16890431  1.929812  
O -0.68036373  0.93299819  0.82467335
C -1.22267838  0.65506067 -0.44486461
C -0.57208417  1.60395743 -1.45198128
O -0.63436708  1.04860087 -2.75553468
C  0.53626533  0.60101176 -3.26235857
C  0.95188767 -0.80263898 -2.84177767
O  2.01606137 -1.20903644 -3.60083155
C  2.41177752 -2.5577621  -3.36793565
H -1.15791311  1.36159818  5.8354228 
H -1.22379304 -0.44549658  6.27826405
H 0.27697532 0.3276371  5.64487063
H 0.37625084 0.95576343 3.09687319
H -1.16587189  1.89633733  3.4836588 
H -2.41773406  0.36887262  1.85152085
H -1.09542451 -0.88074027  1.76408283
H -2.25284309  0.57358506 -0.46194467
H -1.10187441 -0.40249885 -0.84175741
H -1.26552864  2.4969158  -1.36691764
H  0.44678013  1.93907292 -1.32254364
H  0.40834056  0.72102582 -4.37302262
H  1.35047477  1.27127273 -3.01783377
H  1.3175186  -0.66719543 -1.79823437
H  0.07480399 -1.44707091 -3.04995091
H  1.51668933 -3.22990657 -3.76769916
H  3.14265596 -2.63481367 -4.10482643
H  2.67159006 -2.91495874 -2.30891732
