30

C  0.42073218 -0.95816086  4.01992504
O -0.51905948 -0.14439686  3.31625523
C -0.38562771 -0.1632092   1.90848076
C -1.49774539  0.83330085  1.2870502 
O -1.24267886  0.82120759 -0.1058991 
C -2.02188959  1.74268758 -0.83000365
C -1.62503098  1.64600228 -2.36834891
O -0.86109383  0.50483095 -2.64671449
C  0.54602996  0.57109863 -2.34530545
C  0.92897853 -0.81028192 -1.79808253
O  2.26115619 -0.79393805 -1.43178519
C  2.80183672 -2.01889843 -0.86855544
H  1.45570423 -0.62192227  4.02882455
H  0.01306553 -0.8979337   5.05175937
H  0.29113024 -2.1337707   3.8556712 
H -0.5271856  -1.19130386  1.5078253 
H 0.65835343 0.20591997 1.53016989
H -1.30317781  1.79127893  1.72376128
H -2.49483351  0.61201747  1.48707034
H -1.90259881  2.77356392 -0.5552391 
H -3.13450729  1.45496969 -0.68983154
H -2.48465282  1.49547704 -2.98070556
H -1.13744442  2.50797417 -2.65345607
H  1.16111763  0.85317278 -3.16726097
H  0.65041734  1.37398525 -1.57109986
H  0.23037046 -1.04402051 -0.94012003
H  0.70248362 -1.49384999 -2.64200925
H  2.88607454 -2.88663804 -1.58831738
H  3.83048812 -1.72434601 -0.67795917
H  2.32241478 -2.28771009  0.03378564
