30

C  0.06986998 -0.47977495  4.68959258
O -0.81774232 -0.41127043  3.61454842
C -0.35368764  0.32440726  2.4954084 
C -1.43196742  0.30026465  1.39233909
O -0.91042128  1.06071331  0.35465261
C -1.73950744  1.08735003 -0.79773633
C -0.94456427  1.87013549 -1.90033725
O -0.73160564  1.06143186 -3.05273452
C  0.57426666  0.54464431 -3.17334652
C  0.75153302 -0.550818   -2.16247362
O  1.9560685  -1.21525747 -2.50738647
C  2.36064817 -2.23420991 -1.59145908
H 0.28321109 0.54138841 5.06666516
H -0.28215924 -1.14482354  5.3800995 
H  1.10793876 -0.82011608  4.2586142 
H  0.58814477 -0.06786172  2.22182082
H -0.11651425  1.44698372  2.78190395
H -2.31052215  0.68400234  1.77056826
H -1.64659581 -0.77835029  1.03838937
H -2.70291208  1.59117809 -0.63366637
H -2.03247756  0.11832274 -1.2704683 
H -1.59075244  2.68905415 -2.2066319 
H -0.00449098  2.27492066 -1.44536637
H  0.58808829  0.10964863 -4.16267208
H  1.3723792   1.31081345 -3.02297558
H  0.74147721 -0.23827091 -1.13634458
H -0.10106735 -1.14687025 -2.17957672
H  1.55497045 -3.11945675 -1.58020678
H  3.32032078 -2.64132987 -2.05467199
H  2.40682843 -1.86546459 -0.56961618
