30

C  0.62606411 -0.74604239  3.99841291
O -0.48617558 -0.34331152  3.23935803
C -0.12420098  0.26882746  1.99402667
C -1.40104883  0.54595768  1.21444199
O -1.02890429  1.01909478 -0.0550508 
C -2.01768352  1.35879739 -0.94972383
C -1.40936673  1.95814844 -2.18222275
O -0.62117803  0.92859531 -2.90009211
C  0.68935751  0.68293032 -2.4094107 
C  0.73951077 -0.74929016 -1.83961855
O  2.03659747 -1.01095016 -1.38628588
C  2.22068386 -2.31867215 -0.81526769
H 1.19823231 0.09755761 4.29309074
H  0.08454871 -1.10678637  4.871849  
H  1.1576585  -1.46937335  3.4802848 
H  0.52906989 -0.4397296   1.34010311
H 0.37612808 1.15673566 2.18119569
H -2.0874338   1.23402977  1.75358804
H -1.93193967 -0.40938624  1.00785043
H -2.80299651  2.09959997 -0.5764445 
H -2.5852588   0.4661224  -1.21268398
H -2.14397889  2.22114696 -2.88210514
H -0.85065562  2.80708553 -1.88710278
H  1.49759432  0.76536906 -3.20590348
H  0.93453214  1.42720924 -1.68612983
H  0.08014073 -0.73680095 -0.91509428
H  0.26107375 -1.49573435 -2.49334593
H  1.923416   -2.94107108 -1.61808324
H  3.23311625 -2.39741881 -0.5977336 
H  1.55208724 -2.44387336  0.11285035
