30

C  0.47995558 -0.64447783  4.27227449
O -0.45774142 -0.39619955  3.2315423 
C -0.08018952  0.24825798  2.02726941
C -1.34103035  0.41452701  1.23418172
O -0.99949195  1.08861491  0.03624103
C -1.95399183  1.16928743 -0.96286802
C -1.32056694  1.93305605 -2.19753722
O -0.54253064  1.14243469 -3.0277666 
C  0.67234617  0.69768981 -2.47192436
C  0.64729634 -0.78947007 -2.03141842
O  1.99027997 -1.13337294 -1.70160903
C  2.11230764 -2.39445863 -1.09702607
H  1.50573714 -0.18451836  4.01904318
H  0.08441629 -0.26076683  5.27676559
H  0.62006624 -1.75399411  4.42044076
H  0.64915978 -0.28166834  1.36313495
H 0.35405237 1.19481229 2.34262931
H -2.16456156  0.99681431  1.77429081
H -2.03729754 -0.49862943  0.98623496
H -2.86790103  1.72130985 -0.62636296
H -2.25093976  0.08484119 -1.28812539
H -2.19419514  2.28451036 -2.70477034
H -0.76131021  2.73276805 -1.71020589
H  1.46610486  0.74764397 -3.3326914 
H  1.15611025  1.27128673 -1.62826604
H -0.03285865 -0.90566337 -1.20610219
H  0.3203121  -1.42926473 -2.79488777
H  1.89908446 -3.27670965 -1.71636968
H  3.18538291 -2.62750289 -0.84311803
H  1.35741511 -2.44621127 -0.21772089
