30

C 0.38546921 0.45840849 4.34870242
O -0.61846755  0.35274679  3.37668256
C -0.27156383 -0.33937812  2.18215342
C -1.4884644  -0.12329343  1.29326003
O -0.89909158  0.59430937  0.11542348
C -1.85526992  1.01450935 -0.83287805
C -1.15100944  2.04513654 -1.70962119
O -0.35134662  1.43141959 -2.73151589
C  0.84183962  0.90848614 -2.2699553 
C  0.75445568 -0.58083074 -2.07540521
O  2.01980434 -1.0848552  -1.80999487
C  2.08187113 -2.48978422 -1.60245911
H 1.30137116 0.75554671 3.72757066
H -0.02793717  1.16945563  5.06025728
H  0.58985998 -0.52375799  4.65189739
H -0.1009464  -1.40829055  2.45322539
H 0.63602539 0.1379796  1.6659605 
H -2.37774713  0.33119503  1.72295325
H -1.9786564  -1.04273508  0.96502351
H -2.80105781  1.30795171 -0.40805127
H -2.05591068  0.16886427 -1.61012922
H -2.02790425  2.60418211 -2.24540216
H -0.5592544   2.85055303 -1.09010686
H  1.7495619  1.0404957 -2.9788511
H  1.1085072   1.22816161 -1.26943659
H  0.19039212 -0.81126464 -1.11183308
H  0.35179039 -0.94374202 -3.04821959
H  1.86402376 -3.16693505 -2.47219951
H  3.05748804 -2.64801392 -1.26178348
H  1.48129897 -2.7412246  -0.88311596
