30

C 0.95892159 0.63897417 2.30327751
O -0.15591419 -0.03935667  2.92117065
C -0.87983125 -0.9634351   2.15065049
C -1.90473329 -0.29504312  1.27555682
O -1.24469464  0.58506998  0.32041078
C -1.9606537   1.07288634 -0.7300773 
C -1.10449896  2.07544798 -1.50662979
O -0.14395625  1.44283701 -2.30683524
C  0.96675879  0.97343833 -1.70044608
C  0.95855521 -0.54811278 -1.56382451
O  2.12149626 -0.95031541 -0.86633779
C  2.26157898 -2.3383924  -0.59079515
H 0.64367543 1.52745096 1.80728439
H 1.58903732 0.8322619  3.09126059
H  1.28879422 -0.12016122  1.52085849
H -1.38173268 -1.58391138  2.85423232
H -0.17444489 -1.61591205  1.54005235
H -2.63446219  0.19051275  1.83411332
H -2.41933101 -1.02709463  0.71797649
H -2.87521574  1.57530123 -0.46942227
H -2.27837783  0.34024499 -1.36530893
H -1.70679475  2.63987235 -2.1561147 
H -0.64500434  2.84227974 -0.85462452
H  1.81558549  1.29473806 -2.32727739
H  1.22732596  1.36496764 -0.62241997
H -0.01796753 -0.88758426 -1.10136165
H  0.93765619 -0.88266456 -2.60458891
H  2.33530672 -2.92343551 -1.43102728
H  3.2374272  -2.43306093 -0.04687301
H  1.43416804 -2.68451468  0.02489998
