30

C  0.52959194 -0.74859404  4.16370332
O -0.54699973 -0.41184578  3.32050734
C -0.16323281  0.29333247  2.08266851
C -1.40663543  0.37636695  1.20303528
O -1.05096978  1.12857474  0.06847785
C -1.9841729   1.21998909 -0.93110028
C -1.3915441   1.90548377 -2.17772303
O -0.60792203  1.09199667 -2.93566345
C  0.71957164  0.79855911 -2.45270485
C  0.67633822 -0.67292792 -2.00543081
O  1.99817349 -1.02197817 -1.61285343
C  2.22444826 -2.3107686  -1.01578544
H  1.42647511 -0.80060106  3.58569519
H 0.65165569 0.01779742 4.93610939
H  0.35798027 -1.71188001  4.56447038
H  0.60924449 -0.34485647  1.53265529
H 0.36854743 1.2347149  2.27677737
H -2.2264453   0.89030941  1.83058417
H -1.90092613 -0.64717463  1.05321673
H -2.8836012   1.85057919 -0.65958266
H -2.38173751  0.18371791 -1.244573  
H -2.25040335  2.24327364 -2.831908  
H -0.81187181  2.73706482 -1.71662937
H  1.43506132  0.86139996 -3.2007305 
H  0.94520207  1.36704527 -1.53814663
H  0.11583842 -0.89645581 -1.19338356
H  0.36088823 -1.36516531 -2.80513657
H  2.01176886 -3.11519021 -1.7016667 
H  3.25320094 -2.22694068 -0.65476802
H  1.58655217 -2.53835694 -0.06048337
