30

C 0.39358847 0.33809071 4.37532844
O -0.63124128  0.30495608  3.41005314
C -0.31413755 -0.33203052  2.21862341
C -1.42423541 -0.10301698  1.18519241
O -0.93381194  0.80748015  0.23066429
C -1.81326002  1.07588204 -0.81063998
C -1.2445284   2.03966084 -1.81142347
O -0.38969761  1.40760561 -2.79979881
C  0.87493132  0.86766669 -2.28627788
C  0.65586793 -0.67480984 -2.0996778 
O  2.03699412 -1.13550132 -1.84824912
C  2.20423513 -2.48508752 -1.53575656
H 1.23478347 0.97097404 3.94695889
H -0.01375374  0.77710452  5.26541605
H  0.75022509 -0.71014487  4.68264538
H -0.17745376 -1.43390649  2.33790623
H 0.66974425 0.0062551  1.84575531
H -2.27441637  0.30339699  1.61846948
H -1.75298485 -0.90992733  0.70153045
H -2.78261127  1.43851702 -0.40360864
H -2.13389284  0.12961103 -1.3113483 
H -2.07573295  2.54310208 -2.32730962
H -0.67687365  2.85421764 -1.3238907 
H  1.55169855  1.00919936 -3.05677458
H  1.1270653   1.33539638 -1.36594855
H  0.04702561 -0.87786061 -1.20684261
H  0.25981679 -1.02550895 -3.05238922
H  1.99932539 -3.09809953 -2.44257485
H  3.18255959 -2.71129702 -1.22228822
H  1.46080746 -2.66143137 -0.84384246
