30

C -0.5351413  -1.4020184   4.37901978
O -0.31250855 -0.26968152  3.40395923
C -1.02498302 -0.46220111  2.18285959
C -0.92655805  0.8414078   1.42375786
O -1.41705011  0.6012165   0.12215514
C -1.28531954  1.65964107 -0.75376126
C -1.82627265  1.16854031 -2.09418956
O -1.15290533  0.10944307 -2.69343803
C  0.25670852  0.2480796  -2.87504466
C  1.03745729 -0.65137024 -1.96299448
O  2.40813135 -0.21907042 -2.08707014
C  3.37621823 -0.78493413 -1.23559907
H -0.12485536 -2.31692004  3.88618641
H -0.03220447 -1.11356615  5.28101042
H -1.5745424  -1.60375503  4.49428895
H -2.01414826 -0.77591235  2.50552301
H -0.48134066 -1.30214904  1.62113136
H 0.15827807 1.2767512  1.34840646
H -1.50949561  1.64410705  1.85597088
H -0.3142394   2.10136476 -0.90537193
H -1.88499014  2.404476   -0.38168973
H -2.85629099  0.8310761  -1.83769091
H -1.9385449   2.0360194  -2.74634986
H  0.61513151 -0.06544109 -3.86440653
H  0.68656462  1.26530593 -2.63604128
H  0.70091792 -0.49577273 -0.90192831
H  0.96781814 -1.75229282 -2.30544322
H  3.49350263 -1.93159713 -1.3243409 
H  4.38396212 -0.35178559 -1.44345169
H  3.09680557 -0.62845206 -0.19439098
