30

C  0.44382715 -0.85881562  4.11481787
O -0.54232568 -0.23616604  3.29290484
C -0.23470794 -0.03044954  1.95247874
C -1.40345026  0.70205825  1.32519067
O -1.07736691  0.88638806 -0.11293046
C -2.03182101  1.5976032  -0.82939736
C -1.51706454  1.76104982 -2.3045216 
O -0.7581123   0.68720843 -2.82240408
C  0.5876848   0.56708392 -2.41305359
C  0.8242566  -0.82055328 -1.90985753
O  2.17182906 -0.84652479 -1.50089129
C  2.5211317  -2.06005618 -0.80258844
H  1.36572273 -0.17295278  4.12437273
H -0.09426429 -1.10018469  5.05525826
H  0.89372576 -1.81618569  3.63886962
H -0.15835595 -1.04347989  1.44092179
H 0.70844936 0.42018602 1.84032267
H -1.60779572  1.8213757   1.69194827
H -2.24945668  0.117471    1.35379605
H -2.09370265  2.63411342 -0.48121244
H -3.08628567  1.12689781 -0.81272313
H -2.35821689  1.85310384 -3.05016783
H -0.90151117  2.70528549 -2.32209375
H  1.20793642  0.7750836  -3.27060744
H  0.88756926  1.3463907  -1.62409688
H  0.23670183 -1.09523498 -1.04003476
H  0.57995279 -1.57284716 -2.75795578
H  2.22461103 -3.04385036 -1.31770903
H  3.64212864 -1.981242   -0.56273498
H  1.98494085 -2.12112635  0.21468945
