30

C  0.45242162 -0.55537515  4.28359666
O -0.57601978 -0.21339093  3.40453602
C -0.13841827  0.18624977  2.10630357
C -1.4329784   0.4713349   1.30426169
O -0.91116687  1.07926552  0.05415019
C -1.90841206  1.16354541 -0.92154618
C -1.31746548  1.90581795 -2.13979602
O -0.57202372  1.0983118  -2.94322739
C  0.71133869  0.72829032 -2.48127578
C  0.67296587 -0.71456387 -2.04013808
O  1.98622777 -1.08150972 -1.70424059
C  2.23052582 -2.33926236 -1.09436013
H 1.10644546 0.31429253 4.39960541
H -0.02168717 -0.86574049  5.2376847 
H  1.15845399 -1.30300929  3.985914  
H  0.3713374  -0.66726707  1.734981  
H 0.37410324 1.10097843 2.1406211 
H -2.05630819  1.18158544  1.92927886
H -1.90433103 -0.47895591  1.12431402
H -2.78841044  1.71977594 -0.56886583
H -2.17311412  0.20773979 -1.29442641
H -2.04709676  2.33881341 -2.75045776
H -0.58903061  2.71362996 -1.73488581
H  1.42069293  0.89861756 -3.3313728 
H  1.05168003  1.35543987 -1.69245755
H  0.04073664 -0.85864451 -1.12451428
H  0.27943806 -1.56181836 -2.78570386
H  1.97256877 -3.03183715 -1.82643218
H  3.25086037 -2.35684396 -0.83224997
H  1.67907996 -2.46638612 -0.16952813
