30

C  1.05616805 -0.98697163  3.2554549 
O -0.02479402 -0.79171973  2.37159954
C -0.2192352   0.59109882  2.09368085
C -1.44779141  0.67926533  1.22013864
O -1.05603059  1.32831839  0.01620652
C -2.01976288  1.33039618 -1.02749028
C -1.31275072  1.86309031 -2.26487658
O -0.48466076  0.94534353 -2.95740253
C  0.73527895  0.57505043 -2.30448063
C  0.62920054 -0.81615539 -1.64576437
O  1.88264466 -1.11499666 -1.09408034
C  1.80755389 -2.30833477 -0.28927994
H  0.99869654 -0.39818367  4.22500819
H  1.13544301 -2.07814413  3.47859135
H  2.01021275 -0.58738088  2.92519857
H 0.6209662  1.07976896 1.5488312 
H -0.44746999  1.1781333   3.01548579
H -2.37991295  1.12966963  1.6784541 
H -1.69575331 -0.38218215  0.95893189
H -2.90226641  1.8375796  -0.73945367
H -2.28818793  0.31874493 -1.18062518
H -1.93409661  2.21560204 -2.97570852
H -0.89304079  2.89266216 -1.97221775
H  1.43883127  0.49698161 -3.12764694
H  1.08535464  1.35668595 -1.61213484
H -0.17671677 -0.92847252 -0.88550668
H  0.41416599 -1.57534504 -2.51427582
H  1.61644745 -3.32788479 -0.73960734
H  2.72919272 -2.3446479   0.27946178
H  0.95460909 -2.18848598  0.39803203
