30

C  1.38244238 -0.12985499  2.97958721
O 0.42546292 0.00582431 1.90038055
C -0.88073201  0.09482985  2.39768018
C -1.79019107  0.55337215  1.23096515
O -1.10160786  1.20668401  0.20430685
C -1.78420386  1.42474964 -1.02197441
C -0.73988801  1.86847847 -2.10448877
O -0.44441164  0.7863879  -2.99078391
C  0.71852615  0.15910261 -2.6607079 
C  0.63040836 -0.70769393 -1.37294732
O  1.63832212 -1.61190734 -1.4835005 
C  1.76264443 -2.51230308 -0.36558874
H  1.18961177 -1.0780194   3.48597287
H  2.31180648 -0.26626707  2.38688048
H 1.29611663 0.64575598 3.59164317
H -0.92133574  0.82316178  3.25571968
H -1.30593935 -0.76894581  2.77336722
H -2.38439842  1.3583149   1.75074897
H -2.34603967 -0.34522384  0.93774903
H -2.55947861  2.14418011 -0.73839556
H -2.28179289  0.3864428  -1.23721206
H -1.29006722  2.64519137 -2.77450189
H  0.10901435  2.17924151 -1.627702  
H  0.81631499 -0.39932234 -3.61119034
H  1.60952349  0.71874253 -2.47077522
H  0.81259734 -0.0792094  -0.58106959
H -0.24633202 -1.26457707 -1.34160615
H  0.96277552 -3.1659335  -0.25171304
H  2.65019305 -2.98392648 -0.58266993
H  1.85407503 -1.9579796   0.6173071 
