30

C  0.33947565 -0.7787017   4.2886002 
O -0.68063277 -0.49140558  3.34557823
C -0.20026353  0.21093771  2.20183721
C -1.45218902  0.42931274  1.34170747
O -0.93530966  1.12067692  0.23022953
C -1.92080612  1.26585944 -0.93472836
C -1.09942675  1.95105662 -2.1269213 
O -0.76760114  0.96926238 -3.07102263
C  0.49489341  0.41236264 -2.98503728
C  0.74460925 -0.54373015 -1.90173155
O  2.04545274 -1.06304328 -1.97555449
C  2.2321786  -2.13221237 -1.07922057
H 0.79168785 0.08145165 4.54613093
H -0.19978141 -1.36328969  5.14233294
H  1.11203525 -1.47518532  3.78579626
H  0.54724013 -0.50959848  1.71399479
H 0.21124231 1.12794927 2.50731987
H -2.09837764  1.08899521  1.8354054 
H -1.85519555 -0.6366055   1.05395531
H -2.68985353  1.88646278 -0.44400708
H -2.27670675  0.17195347 -1.19320249
H -1.75813587  2.66173647 -2.63545721
H -0.23096061  2.41632977 -1.84591479
H  0.81776885 -0.08827799 -3.88828191
H  1.28635548  1.22638891 -2.8941286 
H  0.5280998  -0.19798631 -0.88637345
H  0.06983764 -1.46951608 -2.14723354
H  1.35372749 -2.95044783 -1.09983493
H  3.17517663 -2.57398585 -1.28369628
H  2.2936283  -1.74533609  0.01418856
