30

C  0.56942993 -0.68776859  4.09975983
O -0.4612204  -0.4387737   3.18614897
C -0.10535251  0.22182483  2.0118393 
C -1.40900373  0.48499226  1.23630444
O -1.00324983  1.1727417   0.05620884
C -1.98507752  1.27379173 -0.9336975 
C -1.35118666  1.93695277 -2.21759813
O -0.58835611  1.06466371 -2.96823314
C  0.68252256  0.67314341 -2.39389244
C  0.68099404 -0.76212552 -1.95236856
O  2.02182604 -0.96763191 -1.51511303
C  2.18387216 -2.21232609 -0.86504517
H  1.57300159 -0.44076836  3.7722534 
H  0.3459631  -0.2327254   5.06908163
H  0.55887761 -1.80943378  4.27244555
H  0.50822286 -0.40286771  1.38218408
H 0.22376343 1.22540138 2.18024575
H -2.13045219  1.08662706  1.91231226
H -1.82787238 -0.51412866  1.08836162
H -2.72078554  1.86006281 -0.62523922
H -2.36425066  0.21862185 -1.18356635
H -2.08077734  2.42973222 -2.86946701
H -0.84810821  2.84438647 -1.8819362 
H  1.32088938  0.75272402 -3.18941156
H  1.00525905  1.2926938  -1.60797708
H -0.03951398 -0.84383003 -1.12393496
H  0.42786942 -1.50755527 -2.75143506
H  1.92936045 -3.02203196 -1.44965004
H  3.19443449 -2.27161062 -0.38926394
H  1.52966225 -2.2613962   0.04445264
