30

C -0.17863003 -0.27088487  4.96813147
O -0.91587288 -0.33010562  3.75375207
C -0.43200786  0.48696415  2.77196677
C -1.3814404   0.28815559  1.61913963
O -0.9207195   1.10459237  0.54244256
C -1.55630108  0.91258515 -0.72598823
C -0.88400245  1.82680075 -1.74566709
O -0.68790352  1.19057355 -3.0177054 
C  0.53264212  0.54786898 -3.25572742
C  0.71912296 -0.71303646 -2.37903338
O  1.95673291 -1.29661883 -2.93083426
C  2.49197845 -2.33772019 -2.1045211 
H -0.22639624  0.75784047  5.35807504
H -0.71106357 -0.99217265  5.68882481
H  0.84698435 -0.55860516  4.79560184
H 0.521987   0.08908877 2.45847616
H -0.38458434  1.56377769  3.05410768
H -2.36167112  0.58725718  1.85749999
H -1.46246816 -0.71075696  1.27256949
H -2.48776483  1.23614888 -0.56056219
H -1.59062353 -0.12398402 -0.95535345
H -1.33520083  2.74202362 -1.82923231
H  0.12591572  2.12255292 -1.40815387
H  0.53202997  0.29490221 -4.30772036
H  1.43975529  1.11143686 -3.044027  
H  0.83967929 -0.2860907  -1.36025346
H -0.05254687 -1.44735055 -2.48855168
H  1.81536481 -3.15439884 -1.90842954
H  3.41289674 -2.69396491 -2.65165775
H  2.74480276 -1.9223864  -1.15790624
