30

C -0.33679598 -1.41230989  4.27070529
O -0.41148305 -0.25642852  3.44624192
C -0.81878085 -0.51039363  2.10844824
C -0.98117813  0.86312388  1.43551454
O -1.35602259  0.52121532  0.07840959
C -1.49351853  1.64845592 -0.79787429
C -1.84257309  1.22004819 -2.16197215
O -1.10207515  0.22720826 -2.85401277
C  0.3315531   0.25868114 -2.94444942
C  1.01654856 -0.43842966 -1.74794557
O  2.39238664 -0.4012178  -2.03207211
C  3.18448388 -1.07458159 -1.10688951
H  0.2487722  -2.2207899   3.87515171
H -0.03643117 -1.12327947  5.25929778
H -1.23543772 -2.04651985  4.38607643
H -1.82961242 -0.94894946  2.1684194 
H -0.03364395 -1.11436496  1.62133155
H 0.06920244 1.42473116 1.55316461
H -1.69035533  1.39555628  1.83207181
H -0.56591079  2.18202136 -0.7514103 
H -2.21587341  2.31290075 -0.39040819
H -2.85812914  0.96401924 -2.18399775
H -1.62577636  2.07642089 -2.64096086
H  0.46872418 -0.24039421 -3.9112346 
H  0.75133456  1.35660877 -2.89098001
H  0.90756928  0.14067721 -0.8225198 
H  0.64549581 -1.40936541 -1.52173097
H  2.7466826  -2.05681876 -0.83672986
H  4.09383893 -1.10331342 -1.65262569
H  3.31376374 -0.48902165 -0.25251361
