30

C  0.97192421 -0.93693264  3.57919966
O -0.09774098 -0.74161766  2.61879033
C 0.02781207 0.39576961 1.85231858
C -1.26025276  0.44470787  1.01543095
O -1.04707658  1.34252037 -0.04406543
C -2.03645752  1.34218527 -0.99406512
C -1.36215202  1.95684758 -2.24284611
O -0.53892103  1.01223309 -2.86639927
C  0.66261053  0.66991059 -2.26080014
C  0.58531393 -0.7594466  -1.76744758
O  1.69233649 -0.93943002 -0.90223192
C  1.69479975 -2.22626727 -0.18161686
H  0.92892243 -0.01719256  4.30168296
H  0.82398939 -1.8950863   4.10961982
H  1.99183144 -0.93722744  3.18461666
H 0.84480297 0.38651502 1.03813945
H 0.25366094 1.34324116 2.45686042
H -2.09028803  0.74228845  1.73699136
H -1.53314072 -0.46302498  0.51940829
H -2.77236595  2.18160838 -0.75732968
H -2.45274664  0.29236867 -0.94210219
H -2.11655098  2.27407946 -2.85541362
H -0.84941544  2.9729102  -1.88233566
H  1.50744243  0.76963847 -3.04768577
H  0.80510673  1.41481124 -1.34089797
H -0.29069007 -1.07773563 -1.18579581
H  0.72245784 -1.55516247 -2.58339467
H  1.81173125 -2.95977967 -0.84320223
H  2.47050331 -2.18359705  0.61678979
H  0.6954791  -2.34733742  0.21951949
