30

C -0.34031364 -0.38825511  4.10340359
O  0.59661493 -0.63463256  3.13494225
C 0.60354498 0.19878074 1.97394888
C -0.84904466  0.50343944  1.55648804
O -0.57019224  1.16017765  0.21362755
C -1.7517377   1.34275118 -0.58689668
C -1.26761785  2.00632574 -1.8638977 
O -0.72099802  1.05399235 -2.80356454
C  0.6143255   0.54075668 -2.59734915
C  0.52432019 -0.9246971  -2.15803409
O  1.91933046 -1.24407451 -1.87472243
C  2.06368039 -2.54820123 -1.44041407
H -1.44852153 -0.50068423  3.82970367
H -0.10446785 -1.10426536  4.82325051
H -0.23488489  0.61316308  4.64823043
H  1.05309014 -0.40973396  1.17544812
H 1.26938945 1.03211338 2.0783133 
H -1.28571952  1.29239447  2.04917474
H -1.62103578 -0.33628908  1.42680783
H -2.41266397  2.0332642  -0.13370684
H -2.22403204  0.29210292 -0.68573931
H -2.2818965   2.42734284 -2.26877421
H -0.48541353  2.78547603 -1.76095388
H  1.10138429  0.64217924 -3.57241149
H  1.21344557  1.09096123 -1.76084   
H -0.1152473  -1.00415571 -1.32542236
H  0.15766674 -1.58824519 -3.02346571
H  1.6447944  -3.48332633 -2.02152512
H  3.22401351 -2.7328867  -1.49270735
H  1.57308598 -2.68435719 -0.36654988
