30

C 0.45293332 0.41825428 4.26857265
O -0.57526189  0.43835749  3.30510783
C -0.42246802 -0.42134475  2.21835241
C -1.49410523 -0.15353174  1.17924048
O -0.93972558  0.71767882  0.19995535
C -1.94675003  1.08410664 -0.77447014
C -1.20956083  2.03570929 -1.77892743
O -0.34687688  1.39986617 -2.69115524
C  0.84315906  0.87337032 -2.151406  
C  0.79666872 -0.63981283 -2.07112479
O  2.06386885 -1.11470475 -1.80886466
C  2.17950189 -2.49830996 -1.64775659
H 1.46357292 0.7471257  3.82206042
H 0.25025027 1.10166202 5.15408433
H  0.48908784 -0.5429402   4.64171689
H -0.41494512 -1.4680933   2.59246907
H  0.56506092 -0.14311042  1.70308719
H -2.27439428  0.19389398  1.70497065
H -1.85097774 -1.14044004  0.78983008
H -2.72579658  1.59573927 -0.22447057
H -2.21345624  0.15701654 -1.39226314
H -1.94966205  2.56902074 -2.44414542
H -0.55827769  2.80892073 -1.26227199
H  1.55475236  1.13023887 -2.87272708
H  1.05040639  1.40243126 -1.25572147
H  0.06510307 -0.9119796  -1.26329743
H  0.47350861 -0.97730826 -3.03919286
H  1.8970073  -2.98289613 -2.54275146
H  3.17914151 -2.81505571 -1.3728376 
H  1.51941131 -2.82950444 -0.80733527
