30

C 0.43824883 0.4188425  4.26402875
O -0.58303718  0.37454988  3.3232893 
C -0.33203498 -0.43441549  2.1696518 
C -1.46534231 -0.13494935  1.18048537
O -0.97123252  0.75003748  0.1968559 
C -1.84674227  1.09079675 -0.83297871
C -1.15380034  2.08274623 -1.76605222
O -0.42868913  1.34875225 -2.68198373
C  0.83753584  0.85759943 -2.26351172
C  0.73736966 -0.63450811 -2.07740378
O  2.03960921 -1.12484615 -1.6637341 
C  2.17566118 -2.46157144 -1.62815748
H 1.3398416  0.8387851  3.84785083
H 0.03599849 0.98398868 5.20036047
H  0.75183823 -0.612826    4.59179083
H -0.26585576 -1.47315051  2.56622349
H  0.61346147 -0.1773447   1.75259425
H -2.32009012  0.35903671  1.71981357
H -1.94699619 -0.94094965  0.61585084
H -2.71394883  1.59627064 -0.4235001 
H -2.24877796  0.22459096 -1.30513354
H -1.95946451  2.73784407 -2.24185123
H -0.68615161  2.91940443 -1.20593997
H  1.57112657  1.15250803 -2.99095732
H  1.05663235  1.29159448 -1.30479413
H  0.01367432 -0.95647285 -1.29916832
H  0.54209127 -0.97932625 -3.03715203
H  1.9579333  -2.89526202 -2.56020301
H  3.26465171 -2.53176676 -1.43440429
H  1.63977412 -2.98976156 -0.84088732
