30

C  0.55472175 -0.57740268  4.17854382
O -0.44864544 -0.34105125  3.25513931
C -0.03388776  0.26241192  2.05728831
C -1.36772015  0.41013333  1.21967987
O -1.00357452  1.16193538  0.05528978
C -2.01793076  1.18390492 -1.00574643
C -1.40696159  1.89695544 -2.18023907
O -0.46165255  1.10422922 -2.96675554
C  0.7759948   0.76922432 -2.38571931
C  0.68555648 -0.72255842 -1.97372516
O  1.95561924 -1.0923893  -1.5244128 
C  2.01615149 -2.38642509 -0.94311765
H 1.04576757 0.29916412 4.65265512
H  0.04783885 -1.07724949  5.02321782
H  1.35251031 -1.22668177  3.85275155
H  0.64812927 -0.3217431   1.50674073
H 0.37144159 1.20313803 2.36417489
H -2.10059232  0.95006396  1.76340876
H -1.8072164  -0.57112898  1.02221283
H -2.92780919  1.68098892 -0.60270895
H -2.28900133  0.04679586 -1.15072019
H -2.25562285  2.17634429 -2.79000734
H -0.95466438  2.82953259 -1.81471737
H  1.55130789  0.94172469 -3.01537484
H  0.96764985  1.38355956 -1.50565065
H -0.07733944 -0.80764209 -1.18883396
H  0.21840096 -1.23031978 -2.92093863
H  1.69967141 -3.2292205  -1.5684497 
H  3.15213774 -2.43504351 -0.84398023
H  1.38470705 -2.32371557  0.0180051 
