30

C  0.92741738 -1.03128484  3.55652099
O -0.16373654 -0.64686305  2.78324609
C 0.01830457 0.44524856 1.83983143
C -1.3087194   0.52970246  1.12069336
O -1.13174634  1.4149949   0.00434845
C -2.0365276   1.40401731 -1.06849245
C -1.42883422  1.92404673 -2.2773585 
O -0.52777968  0.98653629 -2.91817334
C  0.68786115  0.64575441 -2.24609378
C  0.62976217 -0.77326858 -1.72078092
O  1.69642399 -0.92645765 -0.77558999
C  1.76249205 -2.16915978 -0.26193283
H  1.36323754 -0.14530959  4.17332479
H  0.65649275 -1.88510099  4.22804389
H  1.80075537 -1.39958664  2.86228074
H 0.80897717 0.16882053 1.27712856
H 0.3258561  1.31974486 2.5063638 
H -2.04952341  0.89179763  1.8205945 
H -1.61774841 -0.51332957  0.88021398
H -2.85850913  2.03009952 -0.79239361
H -2.38376832  0.32485083 -1.2859925 
H -2.11437878  2.04987165 -2.97047815
H -0.97133578  2.78136761 -1.95307371
H  1.3639768   0.81043228 -3.06351365
H  0.85914509  1.3510868  -1.48840483
H -0.32646525 -0.79204636 -1.37005588
H  0.77671628 -1.49407389 -2.42702973
H  1.95169619 -2.97567195 -0.95788647
H  2.55264248 -2.24976497  0.51138359
H  0.90113939 -2.56817603  0.38098932
