30

C -1.44067669  0.63801374  5.74409419
O -1.12200527  0.0283832   4.48997329
C -1.02714377  0.88623143  3.38745537
C -0.68984382  0.04590887  2.18644802
O -0.45527279  0.97181508  1.09654914
C -0.20105319  0.3625342  -0.15570966
C -0.05892125  1.52042708 -1.16016971
O -0.44872493  1.18065019 -2.48647852
C  0.54680198  0.64772011 -3.31338782
C  0.70496166 -0.83739734 -3.11105598
O  1.63183242 -1.28799243 -4.11568921
C  1.97177367 -2.69572203 -4.06877076
H -2.48058863  1.19088631  5.63950014
H -1.47797164 -0.12679752  6.41484544
H -0.73687107  1.41256294  5.99989143
H -0.30860751  1.70166332  3.69927352
H -1.92327503  1.50393334  3.16321924
H -1.51561038 -0.52743261  1.97521411
H  0.15284229 -0.60760795  2.31725723
H -1.13131682 -0.28111046 -0.47830474
H  0.73545554 -0.23088845 -0.15181908
H -0.70642169  2.2986318  -0.92587862
H  0.82353052  1.9999675  -1.03019546
H  0.23204231  0.83473491 -4.37812338
H  1.52121727  1.15101878 -3.23717122
H  1.22476157 -1.01181658 -2.15661439
H -0.25926186 -1.29271186 -3.12862151
H  1.06651326 -3.29804451 -4.37086429
H  2.73856588 -2.81135582 -4.8701554 
H  2.39996991 -3.03880856 -3.14177634
