30

C 1.12344774 0.27580764 2.29193341
O -0.19138048  0.31618291  2.82142759
C -1.14390115 -0.69246508  2.44564088
C -1.90498539 -0.43814991  1.17821444
O -1.31772147  0.5779827   0.43312409
C -1.99018824  1.0525902  -0.75498194
C -1.1683409   2.14964691 -1.42994123
O -0.17692522  1.63797557 -2.29778008
C  1.02442248  1.06212679 -1.7790375 
C  0.91574095 -0.44382604 -1.56460873
O  2.17559231 -0.84416545 -0.93531243
C  2.30301126 -2.21558274 -0.75828012
H 1.17157696 0.43543769 1.13550094
H 1.7985143  0.93063938 2.79176946
H  1.45586843 -0.71449152  2.42722745
H -1.87151779 -0.80710565  3.31838353
H -0.68728944 -1.70252845  2.43548014
H -2.84331428 -0.05976366  1.50621904
H -1.95918984 -1.37622259  0.50331417
H -3.01291659  1.44532202 -0.43307627
H -2.14267592  0.19623535 -1.43038625
H -1.73075505  2.80214416 -2.07265165
H -0.69887001  2.81851562 -0.67979701
H  1.81278013  1.24327052 -2.4523704 
H  1.2767612   1.51966989 -0.8051228 
H  0.0071992  -0.75275718 -0.87850816
H  0.83816216 -0.90379637 -2.53492722
H  2.4828686  -2.5519188  -1.74248257
H  3.22733006 -2.40080502 -0.21939324
H  1.42275326 -2.57466886 -0.15671081
