30

C  1.04633016 -1.07334253  3.46347534
O  0.02670586 -0.81809249  2.55853297
C 0.02121599 0.4017924  1.86090159
C -1.28619835  0.52332399  1.11404606
O -1.09420939  1.39846622 -0.03354252
C -2.06918652  1.34010625 -1.10449717
C -1.37533404  1.94919452 -2.33062431
O -0.48889663  0.97895293 -2.94294016
C  0.71234162  0.6136975  -2.30607554
C  0.59112104 -0.75599666 -1.68875394
O  1.59968052 -0.86443842 -0.76965276
C  1.68130392 -2.12529684 -0.11825352
H  0.98018176 -0.38993684  4.35326717
H  0.78297968 -2.01330286  3.95779818
H  2.0285791  -1.1544227   2.96791228
H 0.89649886 0.40021239 1.18369998
H 0.18907008 1.26132887 2.5382303 
H -2.08906108  0.95465077  1.66401335
H -1.64181504 -0.43730861  0.82554664
H -3.07942559  1.95793772 -0.92287935
H -2.3847914   0.31445325 -1.17593131
H -2.19834484  2.29439841 -2.93834589
H -0.76141996  2.79731305 -1.87181618
H  1.54796722  0.70406833 -3.03674834
H  0.82802881  1.30338111 -1.42830641
H -0.42504019 -0.8012137  -1.17017216
H  0.47342926 -1.57345086 -2.36699954
H  1.77463698 -2.99285554 -0.88650589
H  2.54267283 -2.19487599  0.5688322 
H  0.77771564 -2.29320048  0.50354553
