30

C  0.11035244 -0.02392918  4.37659954
O -0.08092448 -0.84813272  3.18665212
C  0.14413823 -0.13771858  1.96587519
C -1.18319551  0.28170124  1.35808968
O -0.71233624  0.97183626  0.18470217
C -1.78157585  1.15115953 -0.75594361
C -1.25959726  2.0275063  -1.90752064
O -0.62881235  1.14843981 -2.82458818
C  0.66864709  0.70445348 -2.52910494
C  0.67864629 -0.78990113 -2.11103727
O  2.04451847 -1.15733959 -1.94416481
C  2.02723423 -2.48661036 -1.40926446
H -0.79535671  0.7282357   4.61886573
H  0.0769113  -0.70110875  5.23606102
H 1.06160621 0.58206291 4.42172552
H  0.60883321 -0.85918317  1.27859909
H 0.81207366 0.72524393 2.14491436
H -1.68452753  0.92160602  2.1004536 
H -1.6892562  -0.58891111  1.15306218
H -2.62227571  1.70095823 -0.2807468 
H -2.19639767  0.18290492 -1.25405301
H -2.08702211  2.57028531 -2.41754718
H -0.57236225  2.75416217 -1.62714667
H  1.39808306  0.88314896 -3.29975245
H  1.06421226  1.21597935 -1.60363969
H  0.04910765 -0.95650229 -1.21982591
H  0.33327742 -1.35151009 -3.00039802
H  1.5738614  -3.20424663 -2.08164883
H  3.1387935  -2.8261276  -1.39995611
H  1.64641231 -2.48433808 -0.34793345
