30

C  0.62451825 -0.74768882  4.09530284
O -0.42708784 -0.47001134  3.18663767
C -0.0952699   0.29216264  2.03716656
C -1.37941747  0.58918677  1.27063636
O -0.99647727  1.16903807  0.00519061
C -1.9822618   1.27338533 -1.00790059
C -1.34801545  1.92676796 -2.23974573
O -0.58817462  1.04824828 -2.98476774
C  0.70550288  0.64929641 -2.42358527
C  0.62461734 -0.7605585  -1.8465833 
O  1.95395984 -1.02430013 -1.43643985
C  2.11497164 -2.27027267 -0.83729092
H 1.02310117 0.20354197 4.4582279 
H  0.27809904 -1.24152054  5.04153914
H  1.27523647 -1.4157993   3.600105  
H  0.66750952 -0.31437993  1.42465533
H 0.41306934 1.1203426  2.39137173
H -2.11631098  1.18793743  1.66825026
H -1.81484966 -0.3637522   0.99328505
H -2.90537273  1.85499036 -0.64775032
H -2.29641499  0.20882191 -1.32297692
H -2.16100245  2.31608437 -2.88204636
H -0.72459322  2.75315526 -1.79517501
H  1.49167111  0.73602844 -3.27457416
H  1.15614195  1.34816888 -1.70479998
H -0.04081489 -0.80886721 -0.93191924
H  0.33598759 -1.52601966 -2.58441316
H  1.86545363 -3.02260253 -1.65547447
H  3.14014177 -2.40116058 -0.45458438
H  1.43629272 -2.55004451  0.009277  
