30

C 0.79069692 0.38883417 3.77279835
O -0.34628994  0.56690475  2.98451906
C -0.65101802 -0.54883245  2.17368093
C -1.73753992 -0.17755158  1.17248835
O -1.15142943  0.64212528  0.1498443 
C -2.0493947   1.07061022 -0.80236946
C -1.24363567  2.06337373 -1.65787568
O -0.34036092  1.44660113 -2.53004525
C  0.90268284  0.99363664 -1.96323869
C  0.89304914 -0.56000599 -1.94424764
O  2.15444178 -1.04421675 -1.57467784
C  2.30203572 -2.42477295 -1.46766248
H 1.80388817 0.23006308 3.17721843
H 0.91669494 1.3717506  4.28804771
H  0.61927901 -0.46131058  4.52772618
H -0.87009649 -1.42008069  2.8785865 
H  0.31918955 -0.91828307  1.59276342
H -2.57400649  0.23429052  1.79471059
H -2.03900513 -1.08115464  0.64491409
H -2.87885974  1.50502838 -0.37347052
H -2.44608311  0.21243432 -1.37587375
H -2.0155275   2.67058628 -2.25048001
H -0.70323883  2.70352338 -0.95944773
H  1.78089551  1.28720588 -2.60215118
H  1.21427103  1.29652031 -0.89198375
H  0.12815681 -0.94958133 -1.23699655
H  0.59542799 -0.93128597 -2.94963958
H  1.98473089 -2.8958682  -2.41433804
H  3.41782436 -2.54758463 -1.21166472
H  1.65013792 -2.84007873 -0.75026059
