30

C -1.71085454  0.57947636  5.62499484
O -1.1840572  -0.02580988  4.48719442
C -1.09023015  0.86368286  3.41878207
C -0.44654824  0.13423703  2.17919425
O -0.34817224  1.05362277  1.11537717
C  0.23835948  0.55397153 -0.0595204 
C  0.23569072  1.6080715  -1.1236748 
O -0.42426387  1.10088572 -2.28539597
C  0.29508444  0.56984401 -3.27638246
C  0.6929842  -0.84896752 -3.03122592
O  1.36260535 -1.3421236  -4.19998688
C  1.74674678 -2.70816772 -4.26798744
H -2.71652542  0.97360639  5.4076488 
H -1.94515802 -0.23250564  6.29031558
H -1.11727867  1.32679824  6.07112532
H -0.45690108  1.706865    3.75498365
H -2.14537421  1.21096507  3.05277412
H -0.99194577 -0.75380411  1.84170615
H  0.49235572 -0.20697624  2.57626485
H -0.40157181 -0.22979209 -0.32085993
H 1.2301811  0.17942096 0.28260366
H -0.31394314  2.46075656 -0.76219288
H  1.2685576   1.85783843 -1.35331641
H -0.23661314  0.58841058 -4.20987353
H  1.25478872  1.15706176 -3.49858428
H  1.23425691 -0.86108767 -2.04662314
H -0.16438638 -1.48117884 -2.81335389
H  0.7990713  -3.36398481 -4.19651148
H  2.26979193 -2.73659064 -5.22078833
H  2.31788623 -3.10820817 -3.36391319
