30

C 0.45505754 0.11068161 4.40309497
O -0.57847297  0.17099595  3.41825305
C -0.20044082 -0.26120796  2.08600257
C -1.34461874 -0.00441334  1.12597065
O -0.97703063  0.93921524  0.14472876
C -1.96644469  1.17626915 -0.84829908
C -1.31156847  2.02297957 -1.93987175
O -0.43557797  1.26926961 -2.84637205
C  0.8093226   0.87038774 -2.28129684
C  0.70790306 -0.62065903 -2.03475857
O  2.02841222 -1.11580705 -1.65977575
C  2.13148775 -2.51504983 -1.45518281
H 1.30354974 0.66098505 4.09545166
H -0.04536344  0.55226771  5.31545557
H  0.71701344 -0.98576967  4.65949492
H  0.00875358 -1.33462055  2.23638129
H 0.74970197 0.31275152 1.81626595
H -2.30897257  0.41892711  1.61147345
H -1.67214081 -1.02780899  0.629529  
H -2.77527747  1.63234033 -0.46117979
H -2.39149258  0.12869383 -1.13845547
H -2.07265176  2.45426155 -2.61255522
H -0.73602384  2.87166529 -1.46704236
H  1.61910595  1.07375859 -3.02979948
H  1.0241721   1.50226772 -1.31239169
H -0.01411651 -0.95640183 -1.2937351 
H  0.56487246 -1.14155663 -2.99979928
H  2.03217681 -2.96464425 -2.45001817
H  3.19101593 -2.73860066 -1.09854315
H  1.36633354 -2.87968801 -0.77647132
