30

C  0.04395402 -1.15012957  4.12786449
O -0.49787328 -0.10319874  3.33755951
C -0.67424522 -0.39441577  1.98402276
C -1.09319984  0.88527952  1.32935933
O -1.33820205  0.62667798 -0.04124684
C -1.69896793  1.75210173 -0.7652263 
C -1.86000493  1.29006937 -2.25618746
O -0.97332758  0.33423993 -2.68446947
C  0.4386949   0.51370126 -2.55137597
C  0.98347224 -0.73226445 -1.80209246
O  2.38480606 -0.49858255 -1.77428421
C  3.04832182 -1.46400376 -0.9385026 
H  1.04372896 -1.47130362  3.87216554
H  0.07083124 -0.72516228  5.07737939
H -0.65470728 -2.11346028  4.16399293
H -1.43363926 -1.26588169  1.87464647
H  0.24632014 -0.80480698  1.51864618
H -0.2260794   1.59169993  1.41469835
H -1.96930974  1.35903701  1.833178  
H -0.7956828   2.45867095 -0.75524852
H -2.57856059  2.37719008 -0.43949189
H -2.86910268  0.95526287 -2.47821892
H -1.87804362  2.22583946 -2.92021165
H  0.93842271  0.44386302 -3.5488577 
H  0.6848949   1.5348034  -1.96105081
H  0.63718528 -0.61429598 -0.77302083
H  0.82099811 -1.70862107 -2.334973  
H  3.02136094 -2.45171427 -1.4081254 
H  4.14455482 -1.21287194 -0.97181769
H  2.58974562 -1.51760209  0.05458183
