30

C 0.95865342 0.5362065  2.10207992
O -0.16483401  0.21252518  2.86447629
C -0.9678469  -0.79283524  2.36038908
C -1.90760806 -0.4469789   1.10970578
O -1.26750688  0.54889553  0.46648589
C -1.93671474  1.05876464 -0.69327992
C -1.0542607   2.15341883 -1.41176279
O -0.13470872  1.51743904 -2.29610149
C  1.01022701  1.007832   -1.64395251
C  0.92631795 -0.54233194 -1.52699667
O  2.0761968  -0.88263774 -0.83779993
C  2.23430761 -2.30606706 -0.69166979
H 0.64310857 1.30129846 1.27222349
H 1.68294319 1.01312086 2.63206717
H  1.36919452 -0.33339272  1.49540795
H -1.69961394 -1.10846204  3.19154605
H -0.39575539 -1.71003244  2.11942311
H -2.96095731 -0.21425367  1.53418817
H -2.04153024 -1.24971888  0.45823256
H -2.81038145  1.44786267 -0.4018529 
H -2.08620855  0.34993731 -1.50780853
H -1.92786141  2.59421935 -1.98209563
H -0.42758063  2.68969806 -0.65123463
H  1.8997551   1.438358   -2.21993776
H  1.21017435  1.40198349 -0.66815112
H -0.04902929 -0.71818139 -0.98571744
H  0.76522868 -1.08404227 -2.36896538
H  2.41950568 -2.68548504 -1.72156103
H  3.13781355 -2.45130532 -0.06398055
H  1.2899506  -2.74827837 -0.19061968
