30

C 0.9068113  0.62444222 2.27327831
O -0.04474663 -0.19868897  2.89826634
C -0.81876109 -1.03875829  2.03657433
C -1.91288552 -0.27768749  1.26009376
O -1.21228513  0.6585021   0.35538152
C -2.03084689  1.176006   -0.7550624 
C -1.10242459  2.0906941  -1.53428603
O -0.21040228  1.39878497 -2.3316681 
C  0.98445749  0.9256369  -1.76359423
C  0.97155994 -0.59485504 -1.54451609
O  2.0880829  -0.92383144 -0.72321436
C  2.26981492 -2.28011324 -0.50265999
H 0.5315018  1.54131811 1.84711384
H 1.53163124 1.05605381 3.02995869
H 1.50498629 0.15074326 1.49302296
H -1.43460882 -1.66432518  2.72388243
H -0.23164985 -1.62406902  1.457073  
H -2.60086874  0.2795062   1.91869419
H -2.52508781 -0.89032188  0.71566588
H -2.80692884  1.78623444 -0.35302682
H -2.40833376  0.42512585 -1.37485093
H -1.713045    2.75819834 -2.2335184 
H -0.69422185  2.68818377 -0.80891966
H  1.88866027  1.19177137 -2.35600135
H  1.12187509  1.35464403 -0.77132266
H -1.81865496e-04 -9.17626678e-01 -1.21579118e+00
H  0.99411783 -1.18040926 -2.5181763 
H  2.33328063 -2.8242819  -1.4833609 
H  3.16459272 -2.29969488  0.0475818 
H  1.47223919 -2.69143375  0.07486863
