30

C 0.53904596 0.50044066 4.02341211
O -0.45583557  0.61443132  3.16326422
C -0.48091773 -0.49543073  2.24291317
C -1.57135071 -0.21825154  1.21287186
O -1.07253058  0.62274688  0.19040532
C -1.95952425  1.01923738 -0.86579724
C -1.18492546  2.0465275  -1.67040761
O -0.3202585   1.45443612 -2.54847201
C  0.8976364   0.91323784 -2.04956938
C  0.83764592 -0.57586103 -2.0594641 
O  2.05154699 -1.09681097 -1.61107897
C  2.23708388 -2.49880083 -1.74102469
H 1.45125858 0.43946703 3.46874468
H 0.65298319 1.47040364 4.64839556
H  0.59162273 -0.37862414  4.70334469
H -0.76319321 -1.44442598  2.72409423
H  0.41588106 -0.68161622  1.69697547
H -2.51031602  0.25703152  1.69461802
H -1.87582458 -1.1279422   0.66689514
H -2.88540241  1.37077818 -0.28447763
H -2.31418638  0.16379334 -1.41699518
H -1.83469594  2.74453678 -2.30651173
H -0.61146885  2.70519362 -0.9346179 
H  1.8015658   1.28392876 -2.58812107
H  1.07367668  1.23087613 -0.96118799
H  0.0430717  -0.87869216 -1.43026282
H  0.48104368 -0.86913979 -3.1218946 
H  2.07069341 -2.90181201 -2.81420815
H  3.25841773 -2.5949954  -1.36240986
H  1.58774717 -3.05785683 -1.02298415
