30

C -1.15437298  0.51829079  5.65628264
O -1.20019864 -0.0832697   4.35805209
C -0.82340755  0.84282551  3.37655148
C -1.02570178  0.1790473   2.03985497
O -0.59999222  0.96433439  1.00079355
C -0.85391976  0.45177311 -0.29794293
C -0.39370572  1.57193819 -1.31293076
O -0.62402277  1.10532354 -2.66242891
C  0.54361517  0.59630672 -3.33679859
C  0.88716459 -0.8598513  -2.97595055
O  1.85519366 -1.25641039 -3.91663278
C  2.37284221 -2.59261303 -3.75916951
H -1.70463294  1.38403241  5.74554996
H -1.40449882 -0.27845642  6.32646652
H -0.14955697  0.74958184  5.92900118
H 0.31104148 1.1658349  3.40383606
H -1.40972549  1.77145464  3.43011195
H -2.2003983  -0.01004871  1.94244573
H -0.55014621 -0.79039866  1.98616839
H -1.97536105  0.25290364 -0.41711203
H -0.21851317 -0.36347702 -0.51692469
H -0.91322323  2.55152842 -1.03116816
H  0.70509331  1.77116909 -1.15140805
H  0.37474198  0.66519389 -4.33639625
H  1.37058536  1.25300754 -3.0390995 
H  1.22229978 -0.99415769 -1.95142638
H -0.01572183 -1.47688293 -3.16177924
H  1.58950111 -3.35077952 -3.80737219
H  3.17026789 -2.63747239 -4.44201084
H  2.76433917 -2.61438604 -2.6914831 
