30

C  2.55078   3.76341  -0.429622
O  1.23357   4.0912   -0.909262
C  0.341236  3.05422  -1.0001  
C -0.0288554  2.44675    0.352274 
O -0.678047  1.15705   0.142577
C -0.787445  0.511385  1.39244 
C  0.34624  -0.558388  1.44236 
O -0.033793 -1.59742   0.512122
C  0.0290591 -2.93164    1.0055   
C -0.260911 -3.82633  -0.160484
O -1.72511 -3.90709 -0.26233
C -2.21366 -3.94208 -1.51114
H 2.43867  3.42657  0.612169
H  3.23341   4.53385  -0.580515
H  2.82527  2.90669 -1.06651
H  0.795936  2.23372  -1.54788 
H -0.555902  3.29315  -1.66435 
H 0.897455 2.3048   0.907079
H -0.666722  3.14403   0.865677
H -1.76346   -0.0675385  1.45256  
H -0.680283  1.2924    2.20754 
H  1.30335  -0.163061  1.07714 
H  0.478765 -1.04829   2.38074 
H  1.08249 -3.1688   1.3388 
H -0.73608 -3.12159  1.77494
H  0.197278 -3.37506  -1.06753 
H  0.107107  -4.84516    0.0545433
H -1.70576 -4.65947 -2.13167
H -3.26733 -4.19689 -1.5361 
H -2.09853 -3.00978 -2.06657
