30

C 4.04322 1.47532 1.66223
O 3.48586  0.635636 0.68527 
C  2.36139   -0.0762871  1.13639  
C  1.87174    -0.943846   -0.00685476
O  0.738798 -1.65485   0.426435
C  0.18173  -2.52986  -0.522325
C -0.639155 -1.86748  -1.61618 
O -1.88039 -1.36123 -1.18947
C -1.82035  -0.130004 -0.508963
C -3.23702   0.260643 -0.119566
O -3.25076   1.47926   0.580196
C -3.12926   2.63411  -0.215841
H 4.90288 1.97705 1.21623
H 4.38223  0.905607 2.53774 
H 3.32529 2.23537 1.9981 
H  2.615    -0.710656  1.99828 
H 1.5592   0.608581 1.4482  
H  1.63385  -0.306201 -0.868227
H  2.67225  -1.63143  -0.311619
H -0.476889  -3.20765    0.0299107
H  0.970489 -3.13494  -0.991082
H -0.0534878 -1.08753   -2.11752  
H -0.867103 -2.63964  -2.35682 
H -1.2082   -0.210113  0.39888 
H -1.36886   0.637323 -1.14962 
H -3.87862   0.300372 -1.01064 
H -3.632    -0.522609  0.539108
H -2.16133   2.67948  -0.730292
H -3.92733   2.69014  -0.967634
H -3.21319   3.49542   0.448166
