30

C -0.470189  3.19044  -0.605675
O 0.769686 3.25994  0.251437
C  1.63611    2.13589   -0.0205208
C 1.33936  0.804009 0.691612
O  2.13036   -0.185948   0.0290595
C  2.35609  -1.3813    0.797511
C  1.36745  -2.47433   0.406769
O -0.0084332 -2.22574    0.756333 
C -0.760909 -1.85963  -0.371419
C -2.17159  -1.63755   0.117923
O -2.87797  -0.968586 -0.880183
C -4.23079  -0.652579 -0.679828
H -0.152091  3.14089  -1.67726 
H -0.947682  4.15669  -0.489509
H -1.15826   2.37918  -0.310902
H 2.68632  2.39811  0.247932
H  1.58027  2.06356 -1.09634
H 1.74075  0.916707 1.69745 
H 0.318613 0.542234 0.741452
H  2.23047 -1.1324   1.95727
H  3.40955  -1.69562   0.643401
H  1.46393  -2.55996  -0.692576
H  1.82205  -3.31768   0.903631
H -0.394919 -1.02316  -0.915611
H -0.642104 -2.69632  -1.11379 
H -2.72943  -2.6347    0.306963
H -1.99577 -1.02725  1.10883
H -4.49225  -0.122111  0.244467
H -4.42232   0.136454 -1.3804  
H -4.89378  -1.52679  -0.860829
