30

C  1.89508 -2.26779 -1.42726
O  2.24808   -2.30388   -0.0603838
C  2.28751  -1.12748   0.710469
C 2.97797   0.0590854 0.405123 
O  2.30566   0.907602 -0.485725
C  1.33553   1.84369  -0.155538
C -0.0340814  1.38061   -0.676188 
O -0.615412  0.55214   0.393878
C -1.51212   -0.414826   0.0276809
C -2.80474  -0.462225  0.895171
O -3.93686   0.405817  0.601889
C -5.10378  -0.206422  0.229901
H  0.782963 -2.23642  -1.53016 
H  2.28792 -3.18218 -1.8324 
H  2.34039 -1.45453 -1.98931
H  2.52826 -1.36188  1.78813
H  1.3051   -0.760976  0.855623
H 2.96441  0.610457 1.38226 
H 4.05589   0.1005    0.0386579
H  1.59268   2.70344  -0.658748
H 1.17972  1.99137  0.871159
H -0.58195   2.34467  -0.835352
H  0.0213319  0.851607  -1.63577  
H -1.78075  -0.323526 -1.06142 
H -0.977066  -1.37068    0.0724845
H -3.08362  -1.54129   0.964302
H -2.44719  -0.278436  1.92051 
H -5.06445  -0.496847 -0.861354
H -5.33509  -1.18545   0.708745
H -5.88404  0.53613  0.36272
