30

C 5.38195  0.460996 1.06808 
O 4.04712  0.158708 1.45141 
C 3.01275  0.6436   0.676874
C 1.77014  0.344754 1.50237 
O  0.675051  -0.0625189  0.722485 
C -0.610012  0.124437  1.34639 
C -1.41691   1.16371   0.509452
O -1.93169   0.58841  -0.731181
C -3.32233   0.200878 -0.696526
C -3.53045  -0.678735 -1.9553  
O -3.3959  -2.05528 -1.63188
C -2.08646 -2.57353 -1.83342
H 5.59517 1.49409 1.32305
H 5.52336   0.252437  0.0307324
H  5.96756  -0.214044  1.66003 
H  2.9551    0.170522 -0.304439
H 3.17592  1.76865  0.476213
H  1.94423 -0.3563   2.26001
H 1.4827  1.36709 1.96294
H -0.351586  0.440918  2.3603  
H -1.04297 -0.84486  1.56073
H -2.27252  1.56103  1.0536 
H -0.855928  2.08331   0.375722
H -3.6799   -0.309645  0.177759
H -3.92821   1.09398  -0.903653
H -4.58643  -0.560592 -2.12519 
H -2.89388  -0.399288 -2.80772 
H -2.14985 -3.63156 -2.05891
H -1.73306 -2.04431 -2.77711
H -1.48727  -2.63035  -0.815938
