30

C -3.24804 -2.17657 -3.27543
O -3.7793  -1.15818 -2.40703
C -2.87375   -0.0217068 -2.27687  
C -2.20859    -0.00610121 -0.829481  
O -1.24177  -1.05723  -0.661904
C -0.601373 -1.16251   0.608221
C  0.589533 -0.395375  0.846056
O  1.02268  -0.531622  2.17865 
C  2.22245   -0.0113698  2.52473  
C 2.30109 1.48552 2.27724
O 2.65632 1.80262 1.02516
C 3.90787  1.45853  0.531171
H -3.98268 -2.95841 -3.24582
H -2.32107 -2.62939 -2.87831
H -3.00989 -1.7912  -4.246  
H -3.54599   0.816466 -2.3269  
H -2.16601   0.093722 -2.9865  
H -1.78869   0.996172 -0.662333
H -3.08513  -0.163264 -0.18874 
H -0.427915 -2.2489    0.81355 
H -1.24343 -0.89176  1.4326 
H  1.47266  -0.532492  0.165769
H 0.223074 0.59374  0.743442
H  2.4484   -0.232442  3.56324 
H  3.04332  -0.505984  1.92519 
H 1.36396 2.00449 2.54158
H 2.9923  2.03137 2.94687
H  4.08453  1.85792 -0.48713
H 4.69836 1.80949 1.20558
H 3.98767  0.370322 0.518154
