30

C  1.48224  -0.305564  2.91318 
O  2.84826  -0.204971  2.5243  
C  3.18966  -0.861387  1.33988 
C  2.49293  -0.329253  0.059031
O  1.09938  -0.590187 -0.122233
C  0.594894 -1.86706  -0.375339
C -0.403106 -1.83761  -1.58528 
O -1.65397 -1.39477 -1.15908
C -1.78651    0.0526255 -1.308    
C -3.18122   0.516944 -0.893699
O -3.25985  1.93025 -0.97914
C -2.54653   2.88527  -0.195843
H  1.13426 -1.37469  3.0765 
H 0.815702 0.106851 2.095   
H 1.31151  0.350718 3.75817 
H  4.286    -0.846715  1.25275 
H  2.93771 -1.91341  1.36061
H 2.54994  0.765592 0.146328
H  3.05911  -0.670244 -0.763524
H -0.00285674 -2.25433     0.489408  
H  1.32421  -2.62873  -0.674273
H  0.0332389 -1.1304    -2.3619   
H -0.457252 -2.82917  -2.05728 
H -1.04979   0.568358 -0.698333
H -1.79526   0.533244 -2.28557 
H -3.97483  -0.011231 -1.33451 
H -3.28603   0.485247  0.183382
H -1.53395   3.12883  -0.595231
H -3.13624   3.81198  -0.250521
H -2.49658   2.58027   0.828711
