30

C -4.01488 -0.7659  -1.94909
O -2.97947  -0.306039 -1.04405 
C -3.0963    0.934406 -0.583378
C -1.89175   1.43447   0.268007
O -0.774055  1.86452  -0.445574
C -0.190799  0.941777 -1.33397 
C  0.32467  -0.366531 -0.868136
O  1.55365  -0.350759 -0.212297
C  1.55333  -0.010953  1.14784 
C  2.88587  -0.429289  1.82036 
O  2.79983 -1.75998  2.30738
C  2.73019 -2.73668  1.33187
H -3.97225 -1.87906 -1.97063
H -3.7941   -0.430734 -2.951   
H -5.04162 -0.49778 -1.61815
H -3.82749   0.95158   0.219171
H -3.33119  1.63556 -1.43678
H -2.23165   2.31184   0.804381
H -1.58964   0.759111  1.04444 
H  0.740391  1.4345   -1.67087 
H -0.882991  0.756106 -2.26713 
H -0.373377 -1.00918  -0.265618
H  0.621116 -0.834382 -1.81563 
H 1.39923 1.10198 1.49486
H  0.784302 -0.615847  1.58363 
H  3.70491  -0.264002  1.07956 
H 3.05522  0.175045 2.76067 
H  1.78956  -2.65436   0.786494
H  3.52794  -2.7724    0.597629
H  2.65667 -3.75704  1.80765
