30

C 2.62429 1.07159 1.55215
O  2.21213  -0.229121  1.73032 
C  2.12497  -0.968762  0.530042
C  1.13817  -2.12794   0.713794
O  0.933616 -2.82551  -0.505484
C -0.333838 -2.76392  -0.938584
C -0.828492 -1.51711  -1.73897 
O -1.40074  -0.643935 -0.736793
C -1.48151   0.702784 -0.941368
C -2.50376     1.30397     0.00497869
O -2.29543  2.65923 -0.1729 
C -1.45076   3.27442   0.769234
H 1.76736  1.56604  0.969768
H 3.47625 1.23935 0.84509
H 2.79351 1.45567 2.58177
H  3.03009  -1.38742   0.131348
H  1.78731  -0.319379 -0.306667
H  1.61937 -2.87349  1.3988 
H  0.184918 -1.99849   1.23264 
H -1.06355  -2.95538  -0.173597
H -0.364679 -3.54861  -1.71101 
H  0.0295323 -1.11671   -2.15114  
H -1.61846 -1.85806 -2.39926
H -0.524541  1.21962  -0.833893
H -1.83144  0.92007 -1.95815
H -3.54701   0.98441  -0.339792
H -2.30657   0.936762  0.991916
H -1.70297   4.3454    0.760165
H -1.65174  2.82269  1.74616
H -0.365033  3.02249   0.603117
