30

C  3.92508 -2.66209  2.72275
O  2.70483 -2.02745  2.33653
C  2.60113 -1.77731  0.97752
C  1.36198  -0.973846  0.655572
O 1.80152  0.316123 0.550727
C 0.682575 1.25949  0.550354
C -0.276142  1.14869  -0.710143
O -1.14087   -0.0617305 -0.579619 
C -1.85195  -0.349779 -1.76789 
C -3.27749   -0.0527043 -1.56217  
O -3.27883  1.3562  -1.55779
C -4.39436  2.05216 -1.26598
H  4.60837 -1.85447  2.73838
H  4.21434 -3.51386  2.07325
H  3.88232 -2.96833  3.73724
H  2.66685  -2.72098   0.409713
H  3.46787  -1.20635   0.624767
H  0.936349 -1.40215  -0.34467 
H  0.64376 -1.04006  1.4639 
H 1.05927  2.20731  0.464852
H -0.027774  1.21036   1.39599 
H -0.992174  1.98079  -0.746618
H  0.161883  1.10685  -1.71729 
H -1.59464  0.14385 -2.69126
H -1.65468 -1.39374 -2.01394
H -3.74054  -0.488207 -2.49261 
H -3.708    -0.497057 -0.653952
H -4.82287   1.92826  -0.243197
H -4.06321  3.09761 -1.30577
H -5.26093  1.92225 -2.02568
