30

C  3.80255   1.14166  -0.475566
O  2.65192   1.90001  -0.552817
C  1.50586   1.06629  -0.395456
C 1.01854  0.672999 0.986899
O 0.156413 1.69955  1.52497 
C -1.09687  1.27931  2.12217
C -2.1207    0.764193  1.05317 
O -1.71914  -0.560434  0.723076
C -2.49501  -1.20612  -0.279352
C -1.95626  -2.4721   -0.681891
O -0.75367 -2.28653 -1.4035 
C -0.398389 -3.56298  -2.07192 
H  4.72603   1.726    -0.491156
H  3.85733  0.3745  -1.24204
H 3.85025  0.517071 0.462   
H  1.63601   -0.0228037 -0.785072 
H  0.644564  1.53873  -0.854186
H  0.527653 -0.353677  0.884037
H 1.82531 0.4272  1.68135
H -1.4187   2.12453  2.71767
H -0.846719  0.437684  2.79435 
H -3.1661    0.744872  1.40804 
H -1.94099   1.4059    0.209279
H -3.466    -1.36555   0.237675
H -2.73399  -0.454987 -1.04788 
H -1.9406   -3.26666   0.114921
H -2.71271 -2.84283 -1.39321
H  0.459643 -3.36008  -2.6783  
H -0.141158 -4.22777  -1.24762 
H -1.24367 -3.99618 -2.66657
