30

C -3.62682   0.906773 -3.02742 
O -2.49936   0.545616 -2.30384 
C -1.39016  1.36716 -2.53319
C -0.125744  0.973385 -1.79409 
O  0.277814 -0.270334 -2.32191 
C  1.32131  -0.981389 -1.78859 
C  1.09704  -1.71832  -0.511377
O  1.05391  -0.77124   0.588309
C  0.79806 -1.30601  1.80934
C  0.749114 -0.18684   2.87533 
O  0.852343 -0.700104  4.14759 
C 0.517345 0.243318 5.11928 
H -4.04354  1.89426 -2.78304
H -4.39338   0.181521 -2.72052 
H -3.5189    0.692557 -4.1606  
H -1.63233  2.40454 -2.2037 
H -1.20586  1.47539 -3.64101
H  0.752642  1.66888  -1.8611  
H -0.366883  0.77407  -0.709258
H  2.24646  -0.375404 -1.70406 
H  1.56158 -1.66475 -2.55931
H  0.115474 -2.18813  -0.487829
H  1.98664  -2.3647   -0.450542
H -0.151328 -1.93368   1.68958 
H  1.47033 -2.06035  2.15485
H 1.61358  0.504619 2.77614 
H -0.213105  0.425554  2.81803 
H -0.510143  0.68462   4.83816 
H  0.530506 -0.172025  6.17464 
H 1.13014 1.14619 5.11106
