30

C  2.08331 -0.52983 -1.38541
O  2.56686   -0.609883  -0.0205033
C  1.88275  -1.62505   0.707914
C  0.590746 -1.42563   1.33154 
O  0.479368 -0.513001  2.44014 
C 0.302266 0.805757 2.1315  
C -1.16886  1.1287   1.8445 
O -1.48222   0.633105  0.561604
C -1.1383   1.51346 -0.53183
C -1.76118   0.801812 -1.71096 
O -1.33639  -0.502304 -1.99379 
C -2.1781  -1.37089 -2.69174
H  2.45722 -1.27946 -2.03952
H  2.27142   0.515071 -1.70263 
H  0.997937 -0.622584 -1.36692 
H  2.55049 -2.07524  1.49297
H  1.70217   -2.46886   -0.0109686
H -0.0988099 -1.18651    0.524991 
H  0.297659 -2.35479   1.74278 
H 0.870412 1.15666  1.23906 
H 0.650227 1.50945  2.99844 
H -1.66967   0.564626  2.61093 
H -1.36714  2.26163  2.02884
H -1.6132    2.47239  -0.487685
H -0.115636  1.78824  -0.677722
H -2.94116   0.966043 -1.63971 
H -1.44233  1.44521 -2.59132
H -1.56627 -2.27531 -2.75095
H -3.00289 -1.51148 -2.00211
H -2.55685 -1.05247 -3.60459
