30

C  3.55893  -1.15055  -0.900933
O  2.91306  -1.67566   0.241401
C  1.51033  -1.93151   0.254317
C  0.708601 -0.593644  0.359736
O  0.848795 -0.111384  1.64803 
C 0.288559 1.1584   1.88277 
C -1.22206  1.25111  1.95757
O -2.07907   0.770378  0.947272
C -2.09037   1.54153  -0.217478
C -2.52894   0.676979 -1.37649 
O -1.50911 -0.36697 -1.52223
C -1.70506 -1.20666 -2.60532
H  3.62169 -1.93895 -1.69452
H  4.5785   -0.922745 -0.662031
H  2.8947   -0.292874 -1.20046 
H  1.28222 -2.65399  1.05181
H  1.24119  -2.31959  -0.805116
H  0.844228  0.098714 -0.476923
H -0.279617 -1.02833   0.3411  
H 0.698919 1.82875  1.16121 
H 0.608712 1.46259  2.84617 
H -1.52308   0.726582  2.80899 
H -1.54443  2.31252  2.11775
H -2.73782   2.38778  -0.055459
H -1.12083   1.79317  -0.512603
H -3.556     0.262758 -1.35943 
H -2.46009  1.33218 -2.1983 
H -0.739903 -1.75645  -2.75153 
H -2.4076  -1.9898  -2.47703
H -2.017   -0.56523 -3.49275
