30

C -3.17474  -0.266909 -2.95245 
O -3.32944 -1.023   -1.74029
C -2.65203  -0.514568 -0.582324
C -1.14663  -0.647182 -0.62891 
O -0.595278  -0.0254059 -1.80828  
C  0.201104  1.18947  -1.65208 
C  1.47318   1.02046  -0.849022
O 1.35827  1.15056  0.532565
C 2.45031  0.550785 1.24834 
C 1.94448   0.0125444 2.58629  
O  1.4831  -1.34486  2.49552
C  0.942323 -1.8012    3.67067 
H -2.35089  -0.581342 -3.50804 
H -2.97868  0.72537 -2.66324
H -4.09271 -0.32933 -3.53739
H -2.95515  -1.00993   0.359985
H -2.9689    0.501097 -0.375817
H -0.878347 -0.141639  0.236475
H -0.880431 -1.73338  -0.646161
H -0.436526  1.8725   -1.03238 
H  0.288131  1.54707  -2.71642 
H  1.88255    0.0642157 -1.16164  
H  2.18969  1.81028 -1.24789
H  2.94003  -0.230087  0.73    
H 3.20212 1.32391 1.50714
H 2.79892  0.196426 3.28445 
H 1.10698  0.673547 2.87822 
H  0.160667 -1.1349    4.12506 
H  0.455433 -2.77702   3.45917 
H  1.76427 -1.86642  4.36301
