30

C -1.14864 -2.60265 -3.89642
O -1.83931 -1.76285 -3.09565
C -1.14883 -1.25774 -1.94785
C -2.13519  -0.506988 -1.08512 
O -1.68047  -0.515235  0.268262
C -2.06642   0.530415  1.13623 
C -1.38064  0.47391  2.52952
O -0.00768767  0.935062    2.5079    
C 0.803775 0.302518 1.56471 
C 2.23934  0.871572 1.76347 
O 2.80372  0.655381 0.548505
C 4.12721  1.15471  0.351568
H -0.172459 -2.05881  -4.01483 
H -1.53224 -2.62538 -4.904  
H -1.01402 -3.65701 -3.41259
H -0.154621 -0.722601 -2.16238 
H -0.733701 -2.07796  -1.39123 
H -2.12348   0.525589 -1.43618 
H -3.15706 -0.85043 -1.20148
H -3.13008  0.4036   1.36743
H -1.79819   1.53985   0.656813
H -1.93865  1.19636  3.13996
H -1.5467   -0.564177  2.98058 
H  0.853492 -0.740366  1.74662 
H 0.483042 0.477331 0.485738
H 2.32074 1.87229 1.91443
H 2.79284  0.391847 2.61902 
H 4.183    2.22225  0.409771
H 4.77452  0.781342 1.11177 
H  4.33881   0.869706 -0.693935
