30

C 3.68421 2.44821 1.33458
O 3.1825   1.55668  0.406891
C 2.78968  0.350207 0.902104
C  1.9603   -0.263595 -0.259442
O  1.8572    -1.65579   -0.0985581
C  0.829428 -2.01941   0.778378
C -0.520048  -2.32866   -0.0215343
O -1.50417  -1.29753   0.132811
C -2.52142  -1.12277  -0.836434
C -3.73824  -0.420184 -0.196143
O -4.00029   0.753639 -0.92459 
C -3.23431   1.92622  -0.860118
H 4.01427  3.34725  0.887209
H 4.52797 2.02411 1.93004
H 2.85743 2.73087 2.03889
H  3.68836  -0.221943  1.02573 
H 2.24367  0.385733 1.82189 
H  0.922318   0.0892295 -0.105178 
H  2.3864    0.034989 -1.27883 
H  0.589479 -1.30472   1.5988  
H  1.06642 -2.94363  1.24039
H -0.265349 -2.60545  -1.07868 
H -0.996107 -3.26397   0.324699
H -2.14585  -0.703015 -1.73218 
H -2.8995  -2.17967 -1.14172
H -4.55688  -1.07765  -0.302642
H -3.5398   -0.181534  0.851856
H -2.44072  1.93625 -1.64849
H -3.88266  2.79882 -1.07639
H -2.74644   2.12462   0.100676
