30

C -3.16426 -1.70893 -3.31008
O -2.4711  -1.01798 -2.37183
C -1.26166  -0.580242 -2.91127 
C -0.409628   0.0345626 -1.77613  
O  0.926652  0.455117 -2.0737  
C  1.50696  1.43733 -1.22686
C 2.03748  0.866055 0.127526
O 1.03125  0.346136 0.919707
C  1.57316  -0.308466  1.97917 
C  0.452614 -0.889644  2.78881 
O  0.123634 -0.195391  3.97667 
C -1.23103  -0.125395  4.19495 
H -3.3074  -1.07641 -4.17331
H -4.10561 -1.9444  -2.8827 
H -2.71287 -2.7499  -3.47275
H -1.38055   0.222045 -3.76067 
H -0.734356 -1.3584   -3.45259 
H -0.885644  0.957046 -1.51345 
H -0.389236 -0.648651 -0.894386
H  0.735834  2.14618  -0.994712
H  2.27229  1.92327 -1.83088
H 2.97479  0.27469  0.124718
H 2.27971  1.82149  0.662669
H  2.18988 -1.20614  1.65608
H 2.17825  0.322545 2.64395 
H -0.456062 -1.00803   2.21287 
H  0.854861 -1.84927   3.03911 
H -1.61587 -1.15738  4.27771
H -1.44288   0.434778  5.17482 
H -1.85258   0.372335  3.43173 
