30

C  3.02554   2.35271  -0.287515
O 2.87764 1.98739 1.06399
C 1.67754 2.49374 1.71829
C 0.297945 2.08297  1.07778 
O -0.129828  0.790262  1.36415 
C  0.649056 -0.207691  0.771773
C  0.24775 -1.59445  1.14878
O -0.752984 -2.17523   0.236683
C -2.10034 -1.74068  0.2543 
C -2.57846 -2.24562 -1.05792
O -2.03524 -1.55955 -2.15191
C -2.43361 -2.01049 -3.45413
H  2.12296   2.15678  -0.920033
H  3.86363  1.83242 -0.70303
H  3.10379   3.44942  -0.383673
H 1.65589 3.63818 1.60902
H 1.75955 2.21231 2.76399
H -0.34544  2.85572  1.54315
H  0.295875   2.1598    -0.0254298
H  1.70214 -0.11538  1.08205
H  0.7185   -0.062104 -0.276417
H  1.13732 -2.27041  1.03591
H -0.0730022 -1.66276    2.22577  
H -2.62943 -2.32027  1.06013
H -2.26494  -0.681675  0.367202
H -2.30947 -3.28278 -1.30111
H -3.69049 -2.18569 -1.15189
H -3.45024 -2.3612  -3.35563
H -2.30017 -1.18518 -4.20891
H -1.67749 -2.87963 -3.73522
