30

C -1.43253 -2.18265 -3.42933
O -1.16281 -1.16989 -2.46199
C  0.140416 -0.608869 -2.63281 
C  1.27809 -1.35561 -1.86328
O  1.11174 -1.25042 -0.43674
C -0.0868337 -1.76038    0.107014 
C -0.0956298 -1.55314    1.62007  
O -0.345369 -0.203179  2.05194 
C 0.743781 0.704453 1.80772 
C 0.531088 2.07805  2.59175 
O -0.143318  2.89263   1.73513 
C -1.50671  2.55857  1.46332
H -1.35808 -1.85879 -4.48511
H -2.46546 -2.53089 -3.27413
H -0.82083 -3.0776  -3.13846
H  0.0796495  0.392422  -2.21342  
H  0.51997  -0.503888 -3.66467 
H  1.2218  -2.39962 -2.24008
H  2.13844  -0.723107 -2.16735 
H -0.305445 -2.72663  -0.369776
H -0.885349 -1.07917  -0.234736
H -0.964632 -2.04756   1.9993  
H  0.767121 -1.85923   2.12134 
H 1.67618  0.304826 2.07979 
H 0.74856  0.891725 0.711624
H 0.0622911 1.86028   3.56751  
H 1.42573 2.62536 2.84861
H -2.05474  2.08902  2.30183
H -2.07495  3.46148  1.26542
H -1.53439   1.91108   0.599444
