30

C -3.45702  -1.94382   0.119995
O -2.48809   -2.91411   -0.0572991
C -1.32925  -2.77192   0.682304
C -0.522023 -1.57795   0.375973
O  0.257897 -1.89545  -0.812487
C  0.352187 -1.00607  -1.86652 
C  1.62253   -0.0520043 -1.73135  
O  1.38341  1.16611 -1.09219
C 1.93236  1.16285  0.244439
C 1.44499  2.51362  0.828364
O 0.320094 2.18072  1.58633 
C -0.452371  3.24381   1.98837 
H -3.28247  -1.12153  -0.538397
H -3.54115 -1.61215  1.12978
H -4.29127  -2.44053  -0.156948
H -1.5545 -2.73    1.7338
H -0.616272 -3.64285   0.495762
H -1.1702   -0.637996  0.333908
H  0.162893 -1.6377    1.27249 
H -0.43535  -0.266809 -1.87488 
H  0.329575 -1.63414  -2.84043 
H  2.42057  -0.639699 -1.253   
H  1.84815   0.229605 -2.80476 
H 1.55433  0.304154 0.843038
H 3.01146  0.988801 0.183166
H 2.11659 3.21207 1.42707
H  1.20636    3.18903   -0.0291502
H -1.40278  2.82755  2.33849
H 2.10667e-04 3.79813e+00 2.82403e+00
H -0.622788  3.91723   1.04205 
