30

C  4.00474   0.905189 -0.968175
O 3.34417  1.33598  0.129746
C 2.20119  0.614549 0.563837
C  0.957687  1.06835  -0.258436
O  1.00851   0.465091 -1.48098 
C -0.1686   -0.284208 -1.81857 
C -0.153005 -1.6096   -1.03447 
O -0.461736 -1.66737   0.29715 
C -1.9112   -1.8025    0.460797
C -2.64445 -1.3651   1.63035
O -3.05388    0.0233287  1.67852  
C -4.28607   0.432195  1.21661 
H  3.42642  1.08473 -1.94521
H  4.09015  -0.201719 -0.912519
H  4.99796   1.5132   -0.905765
H 2.13296  0.826712 1.64374 
H  2.20063  -0.52636   0.455899
H -0.027476  1.01641   0.249091
H  1.10036   2.19683  -0.315693
H -0.19095  -0.431674 -2.88278 
H -1.05136   0.340052 -1.58139 
H -0.913664 -2.25962  -1.67093 
H  0.908985 -1.96966  -1.22065 
H -2.40825  -1.30339  -0.365683
H -2.10181  -2.87296   0.271804
H -3.49709 -2.02583  1.7741 
H -1.95534 -1.59217  2.51509
H -4.10353  1.4973   1.09016
H -4.45809    -0.00611802  0.265959  
H -5.10307  0.2885   1.91138
