30

C -2.65197  3.69862 -3.1908 
O -3.19618  2.68547 -2.29626
C -2.67692  1.35443 -2.52214
C -1.48073  1.05922 -1.67712
O -0.914579 -0.188506 -2.00661 
C -0.652634 -1.10483  -0.922469
C  0.740748 -0.753923 -0.202968
O  0.930648 -1.51457   1.01231 
C  2.26496 -1.58037  1.35506
C  2.67128 -2.36178  2.66329
O  2.56902 -1.77572  3.9123 
C  1.26781 -1.44347  4.25321
H -1.67227  3.48033 -3.53465
H -2.64377  4.65288 -2.64632
H -3.26652  3.651   -4.15497
H -2.5978   1.20573 -3.64661
H -3.46795   0.713471 -2.19136 
H -0.624534  1.80737  -2.01481 
H -1.67535  1.2284  -0.60768
H -0.440072 -2.06216  -1.46251 
H -1.46508  -1.24371  -0.219853
H  1.4725   -0.929353 -0.96735 
H 0.871078 0.34962  0.069985
H  2.78867  -2.14146   0.543173
H  2.71955  -0.653685  1.46212 
H  2.04919 -3.24239  2.564  
H  3.64282 -2.75147  2.56275
H  0.643561 -2.36019   4.23388 
H  1.26968 -1.15626  5.30272
H  0.766532 -0.721374  3.55426 
