30

C 0.840007 1.87059  2.36277 
O 1.09353  2.10409  0.976747
C 2.41967  2.02031  0.491741
C 2.81142  0.589133 0.371481
O  2.34021   0.211332 -0.972334
C  2.0651  -1.14008 -1.20357
C  0.839718 -1.68144  -0.504148
O -0.372234 -1.19906  -0.996337
C -1.37773   -1.44658   -0.0141363
C -2.75011  -1.1071   -0.572534
O -3.85889  -1.40667   0.317414
C -4.9842    -0.698357  -0.0378979
H -0.277004  1.97782   2.38201 
H 1.18407 2.64896 3.05138
H 1.1731   0.881321 2.60486 
H 3.08552 2.50754 1.20757
H  2.45797   2.51104  -0.438966
H 3.93878  0.402674 0.363901
H  2.2964    -0.0085694  1.09358  
H  2.88109  -1.67181  -0.769427
H  2.25263 -1.3248  -2.253  
H  0.994968 -2.78294  -0.565952
H  0.965817 -1.51346   0.599418
H -1.43998  -2.48203   0.292199
H -1.22283  -0.817045  0.893557
H -2.84838e+00  1.92485e-03 -7.35310e-01
H -2.74209 -1.67793 -1.5155 
H -5.85384  -0.96467   0.535986
H -4.88096   0.381814  0.232573
H -5.18227  -0.728602 -1.11353 
