30

C  3.80843  -0.161464 -1.36187 
O  3.39273  1.11381 -1.10799
C  1.98791  1.30883 -1.04073
C  1.18723    0.505858  -0.0221123
O 1.06511 1.25342 1.17094
C 0.50135  0.447021 2.24628 
C -1.04115  0.24342  2.18823
O -1.41239  -0.503871  1.05719 
C -2.71681   -0.0856685  0.60096  
C -2.73586  -0.746344 -0.728047
O -2.55231  -2.12061  -0.579034
C -2.77199 -2.8682  -1.78617
H  4.60291  -0.073284 -2.05626 
H  3.08027  -0.854757 -1.86841 
H  4.21543  -0.692496 -0.53051 
H  1.62681  1.02958 -2.03079
H  1.85363   2.37891  -0.924544
H  0.210366  0.426635 -0.39849 
H  1.58587  -0.541732  0.153624
H 0.815881 0.950712 3.18024 
H  0.956056 -0.500639  2.25724 
H -1.44599  -0.229909  3.10233 
H -1.43075  1.27904  2.03817
H -3.43874  -0.394958  1.38353 
H -2.80672   0.970618  0.39868 
H -3.61007  -0.412881 -1.31221 
H -1.90419  -0.179099 -1.22919 
H -2.16017 -3.78689 -1.54401
H -3.8089  -3.12463 -1.86222
H -2.4435  -2.25146 -2.68727
