30

C -3.3429   1.27283 -1.52354
O -1.97455  1.1632  -1.32693
C -1.2812   1.32625 -2.4935 
C  0.107557  0.815477 -2.17302 
O -0.12639  -0.636582 -2.09398 
C  1.0627  -1.44191 -1.86863
C  1.17705  -1.76688  -0.424547
O  1.79166  -0.815282  0.349267
C  1.77863 -1.01328  1.76306
C  0.394475 -0.617299  2.29655 
O  0.358758 -0.369597  3.63526 
C -0.855912  0.205433  4.10143 
H -3.6288   2.11339 -2.12385
H -3.84      1.37651  -0.554419
H -3.74215   0.368175 -2.02962 
H -1.20434  2.37252 -2.71162
H -1.6105    0.861444 -3.42863 
H  0.916294  1.1116   -2.87221 
H  0.457563  1.17663  -1.17791 
H  1.97258  -0.949743 -2.23225 
H  0.985184 -2.39327  -2.33064 
H  0.214428  -2.12346    0.0499561
H  1.92715  -2.57942  -0.469109
H  1.94448 -2.07627  1.96232
H  2.55943  -0.352511  2.13467 
H -0.015216  0.165835  1.70346 
H -0.243659 -1.40466   2.02612 
H -1.67007  -0.671181  3.98628 
H -0.712645  0.587723  5.14417 
H -1.15565  1.13967  3.62575
