30

C  3.46265   0.207541 -2.36832 
O  3.88221    0.0980788 -1.0206   
C  3.00025   -0.413398  -0.0821491
C 1.94364  0.686596 0.3459  
O  0.988644  1.09909  -0.585085
C -0.142799   1.65377   -0.0591585
C -1.32127   0.796125  0.325916
O -0.991944 -0.106205  1.3482  
C -1.53416 -1.42998  1.33343
C -3.04294 -1.4412   1.60093
O -3.6685   -0.967864  0.41792 
C -3.76337  -1.86648  -0.615153
H  2.54596   0.693244 -2.51197 
H  3.42376  -0.778904 -2.77725 
H  4.29214   0.735054 -2.87806 
H  3.44752  -0.795176  0.81235 
H  2.46034  -1.26795  -0.556401
H 1.45758  0.289144 1.22624 
H 2.40703  1.60129  0.624404
H -0.387105  2.32568  -0.926486
H 0.0544388 2.32833   0.851539 
H -2.18385   1.4254    0.553887
H -1.61157   0.221925 -0.6804  
H -1.34616  -1.96531   0.371177
H -0.935915 -1.92166   2.05288 
H -3.38206 -2.43008  1.79673
H -3.20507  -0.631562  2.42382 
H -4.36091 -1.5387  -1.43268
H -2.83901 -2.09925 -1.15544
H -4.0136   -2.86787  -0.268183
