30

C -4.26489  -2.89291  -0.209916
O -3.51532  -3.07415   0.959668
C -2.91989 -2.0209   1.62225
C -1.85428  -1.24371   0.775908
O -0.708413 -2.09968   0.557976
C  0.251588 -1.4507   -0.289919
C  0.945257 -0.326565  0.483348
O  1.03632   0.899523 -0.215708
C  2.12083   0.933614 -1.0953  
C  2.47837  2.27263 -1.57956
O  3.10265   3.09786  -0.602106
C 2.26781   4.01239   0.0246049
H -4.09243  -1.97565  -0.705674
H -5.25597   -2.8174     0.0524962
H -4.08857  -3.68621  -0.925825
H -3.57801 -1.28176  2.08285
H -2.42067 -2.50693  2.4102 
H -2.38138  -1.07916  -0.143228
H -1.69119 -0.23774  1.1601 
H -0.238552 -1.09252  -1.17905 
H  0.875739 -2.22132  -0.563929
H  0.461911  -0.0692555  1.44601  
H  1.94208  -0.620123  0.824228
H  3.00147   0.493443 -0.687316
H  1.85459   0.321012 -1.96452 
H  3.28597  2.09373 -2.33049
H  1.61137  2.75886 -2.06805
H 2.88978  4.74943  0.549357
H  1.71463   4.60838  -0.715643
H 1.57946  3.51459  0.659709
