30

C -1.62803  3.81234 -1.14676
O -0.486755  2.96508  -1.20768 
C -0.364534   2.18737   -0.0491216
C -1.64689  1.48399  0.52304
O -2.39811   0.653012 -0.435824
C -1.67405  -0.304907 -1.14334 
C -1.30556 -1.56787 -0.41519
O -0.209503 -1.12539   0.396776
C  0.486877 -2.07275   1.1533  
C  1.50863  -2.90655   0.453693
O  2.78469 -2.2673   0.54783
C  3.59452 -2.72259  1.66354
H -2.52079  3.27929 -1.39041
H -1.43858  4.55469 -1.90895
H -1.69226   4.34622  -0.161599
H 0.00792226 2.80667    0.815816  
H  0.37542   1.39948  -0.223635
H -1.42782   0.785475  1.34136 
H -2.3163    2.27116   0.833092
H -0.766784   0.0990011 -1.64595  
H -2.38784  -0.496949 -1.98998 
H -2.17472  -1.95235   0.192898
H -0.948572 -2.34875  -1.01712 
H  0.836992 -1.42935   2.01292 
H -0.217238 -2.83882   1.55375 
H  1.56481  -3.88995   0.843034
H  1.21818  -3.01584  -0.542693
H  3.76354 -3.79728  1.74114
H  4.61683 -2.34461  1.45457
H  3.18913 -2.34498  2.6109 
