30

C  4.24939  -0.109138 -2.5526  
O  3.00598  -0.240859 -1.89691 
C  2.73397 -1.49169 -1.33959
C  1.1958  -1.59876 -1.07778
O  0.664627 -0.575879 -0.303776
C  0.263218  0.574181 -0.96451 
C -0.837395  1.2141   -0.143229
O -2.10255   0.529589 -0.229126
C -2.16076  -0.533729  0.722111
C -3.31252  -0.236222  1.68169 
O -2.97023   0.617559  2.7231  
C -2.06273    0.0686668  3.69171  
H  4.32493   0.769967 -3.16678 
H  4.52776  -0.963791 -3.19138 
H  4.91542   -0.0386697 -1.71464  
H  3.14876  -1.65962  -0.316396
H  3.00772 -2.31821 -1.99372
H  0.607419 -1.76434  -2.03758 
H  1.06978  -2.49818  -0.518096
H  0.107135  0.421677 -2.0333  
H  1.10153  1.33631 -0.9202 
H -0.505933  1.40302   0.892976
H -1.11026   2.20764  -0.510189
H -2.40087 -1.43923  0.14401
H -1.19682  -0.764313  1.24441 
H -4.1719     0.0903691  1.05311  
H -3.78217 -1.07634  2.19058
H -1.06652   -0.0556578  3.34901  
H -2.10676   0.878655  4.3571  
H -2.53086  -0.855275  4.11234 
