30

C -2.76281 -1.24078 -4.00284
O -2.00156 -0.6104  -3.0268 
C -1.06162   0.267945 -3.48925 
C -0.532919  1.128    -2.41359 
O -0.0222122  0.198402  -1.45179  
C -0.858779 -0.018966 -0.332525
C -0.597914  0.875044  0.810199
O 0.124797 0.187305 1.78191 
C  1.51556   -0.0568817  1.62889  
C  1.94926 -1.22434  2.49465
O  2.17905  -0.810035  3.85995 
C  1.02959  -0.386887  4.52933 
H -3.28718  -0.383608 -4.47155 
H -3.51666 -1.80642 -3.47423
H -2.26062 -1.7701  -4.91041
H -1.56712   0.821612 -4.29153 
H -0.264422 -0.510299 -3.79019 
H  0.334841  1.69099  -2.72819 
H -1.32455  1.86316 -2.07172
H -0.716139  -1.10889   -0.0248606
H -1.90921e+00 -4.65310e-04 -6.98345e-01
H -0.246928  1.93007   0.569835
H -1.56639   0.972452  1.23349 
H  1.82233  -0.240801  0.558005
H 2.03722  0.908561 1.99279 
H  1.15644 -2.07554  2.2947 
H  2.93013 -1.51578  2.08376
H  1.30441 -0.23544  5.62141
H 0.607808 0.592656 4.1705  
H  0.250054 -1.13651   4.51807 
