30

C  4.13779 -1.9654  -3.19963
O  3.17614 -1.97531 -2.14753
C  1.92798 -2.41129 -2.60005
C  1.00135 -2.4102  -1.3421 
O  0.139847 -1.24467  -1.43282 
C -0.799678 -1.00346  -0.379312
C -0.313269 -0.284171  0.795256
O -1.31455   0.213562  1.62556 
C -2.17117   1.16417   0.992372
C -3.02144  2.0097   1.84087
O -2.21197  3.03383  2.41217
C -1.88086  3.01343  3.81799
H  3.8108  -1.1932  -3.91597
H  4.19941 -2.96742 -3.7311 
H  5.14182 -1.72073 -2.75471
H  1.96995 -3.3795  -3.08226
H  1.43492 -1.7135  -3.32625
H  0.35588 -3.33345 -1.32247
H  1.53624  -2.3594   -0.395261
H -1.35442   -1.93198   -0.0696765
H -1.51751  -0.390519 -0.92181 
H  0.238316 -0.952744  1.43634 
H 0.340786 0.58713  0.436795
H -1.59835   1.83585   0.306723
H -2.86791   0.605444  0.38622 
H -3.80813  2.33693  1.13408
H -3.39953  1.37213  2.60862
H -2.58803  2.54801  4.48397
H -0.965024  2.3964    3.97497 
H -1.74543  4.0583   4.1897 
