30

C  0.879989  3.15891  -1.63453 
O  0.510957  2.1449   -2.49689 
C -0.627358  1.42475  -2.17198 
C -0.687902  0.659648 -0.835287
O -1.01032   1.56036   0.223112
C -1.6078    0.930131  1.31384 
C -0.564156  0.193162  2.17921 
O -0.318179 -1.06227   1.64828 
C  1.05958 -1.36754  1.40189
C  1.26438 -2.82912  1.06559
O  0.603557 -3.06082  -0.120877
C -0.68723   -3.53072   -0.0199992
H  1.13021   2.79955  -0.695393
H -0.0637655  3.81653   -1.63862  
H  1.60354  3.78505 -2.19713
H -0.743473  0.685717 -3.01677 
H -1.56077  1.95717 -2.2578 
H -1.40682  -0.22428  -0.955314
H  0.273593  0.234847 -0.645207
H -2.30044    0.0575679  1.03727  
H -2.1379   1.69549  1.95843
H 0.321091 0.855211 2.06443 
H -0.787878  0.107562  3.25532 
H  1.29295  -0.779944  0.464693
H  1.72861 -1.0943   2.15085
H  2.36983 -2.94723  1.02724
H  0.928985 -3.53794   1.82973 
H -1.22414  -3.06888   0.725514
H -1.22854  -3.12101  -0.910422
H -0.72965   -4.62944   -0.0171052
