30

C -3.56881 -2.70712  2.63543
O -3.08821 -2.06084  1.50131
C -2.64527  -2.87941   0.463972
C -2.42595  -2.02594  -0.800249
O -1.09591 -1.63332 -1.00411
C -0.705843 -0.68716  -0.16415 
C  0.673771 -0.208093 -0.69946 
O 1.44759  0.580471 0.11951 
C 1.07255  1.97727  0.205574
C 2.29614  2.81116  0.418149
O  2.96371   3.03734  -0.884827
C  3.87617  2.07525 -1.43407
H -3.79834 -1.93563  3.37508
H -2.69411 -3.29336  2.94762
H -4.4039  -3.39116  2.37286
H -1.75353  -3.49419   0.657499
H -3.46308  -3.55816   0.218247
H -2.64355 -2.71817 -1.64983
H -3.12349  -1.17369  -0.837681
H -0.501392 -1.06449   0.891477
H -1.55771    0.102632  -0.0962336
H  1.14174  -1.13024  -0.991538
H  0.420223  0.200366 -1.72283 
H  0.664956  2.30297  -0.791456
H 0.44021 2.11172 1.0775 
H 1.87411  3.66989  0.883028
H 3.02398 2.24897 1.06426
H  3.71152  2.17993 -2.52067
H  4.89     2.41716 -1.22653
H  3.67817  1.07252 -1.03612
