30

C  0.602571  2.84112  -1.25502 
O 0.358248  2.55159   0.0944616
C 1.49058  2.14455  0.877633
C 2.25674  0.93454  0.527274
O  1.43714  -0.233948  0.373846
C  1.13389  -0.827507  1.59101 
C -0.0592146 -1.65632    1.40444  
O -1.35856  -0.981952  1.4962  
C -1.69895  -0.307133  0.272213
C -2.24914  -1.34415  -0.763025
O -1.27435 -1.97288 -1.53314
C -1.75268 -2.93878 -2.44065
H -0.372239  3.24717  -1.58805 
H  0.779861  1.93233  -1.81882 
H  1.34986  3.69122 -1.32323
H 1.16396 2.08423 1.95881
H 2.26545  2.98173  0.842302
H  2.68723   0.982211 -0.530919
H 3.01244 0.73892 1.36057
H  0.879656 -0.161405  2.40066 
H  1.99261 -1.45428  1.86393
H  0.121952 -2.15165   0.39966 
H -0.124434 -2.38855   2.17721 
H -2.50083   0.427693  0.544538
H -0.856144  0.199629 -0.093477
H -2.73807  -2.14907  -0.202681
H -3.01866  -0.866247 -1.54455 
H -2.63497 -2.52444 -2.94342
H -0.870538 -3.0988   -3.08093 
H -2.04773 -3.88495 -2.00816
