30

C  2.40961  2.02376 -1.7766 
O  3.4013    2.0332   -0.800913
C 2.93117  2.31825  0.481396
C 1.96024 1.3415  1.04067
O 0.777226 1.20371  0.239639
C -0.458644  1.17521   0.985319
C -1.62777    0.593352   0.0795709
O -1.94665  -0.773719  0.293975
C -1.08675  -1.64629  -0.265286
C -1.31265   -3.07306    0.0525068
O -2.55819  -3.56959  -0.429686
C -3.62206  -3.35182   0.552359
H  1.67054  2.79847 -1.65766
H  1.91219  1.01435 -1.84068
H  2.95908  2.0497  -2.72904
H 2.70848  3.3173   0.608793
H 3.86087 2.37674 1.11759
H 2.43741  0.432328 1.08324 
H 1.62755 1.48159 2.06601
H -0.786316  2.17431   1.26826 
H -0.301501  0.627654  1.96717 
H -2.61886   1.16771   0.277963
H -1.40269   0.881784 -0.990687
H -1.175   -1.49831 -1.3438 
H -0.0606909 -1.38432   -0.0486547
H -0.583041 -3.7057   -0.355525
H -1.14167 -3.19112  1.15781
H -4.56122  -3.70392   0.142504
H -3.49141 -3.8702   1.57103
H -3.75534  -2.28528   0.874534
