30

C 2.51166  0.176808 1.85075 
O 2.29724  0.447212 0.50503 
C  2.5617   -0.529056 -0.424906
C  1.9005   -0.177474 -1.71718 
O  0.467754 -0.102739 -1.58481 
C -0.0689181  1.15988   -1.21722  
C -1.59987  1.20238 -1.47005
O -2.2955    0.62909  -0.472719
C -2.39997  -0.792129 -0.497423
C -1.55992  -1.56227   0.559761
O -1.91739 -1.62009  1.96057
C -1.2323   -0.634732  2.6273  
H  2.09714  -0.867429  2.10842 
H 1.98268  0.913147 2.39302 
H 3.56102  0.232918 2.19837 
H  2.20809   -1.45924   -0.0486892
H  3.64426  -0.693274 -0.701607
H  2.39674   0.786668 -2.0597  
H  2.1315   -0.943454 -2.44454 
H  0.431571  2.02986  -1.7759  
H  0.0815744  1.32039   -0.158153 
H -1.76455  2.26569 -1.31316
H -1.83206   0.955862 -2.51555 
H -3.45249  -0.94768  -0.447779
H -2.06502 -1.17831 -1.47354
H -1.54712  -2.56972   0.181712
H -0.482259 -1.1868    0.478522
H -1.4063    0.313274  2.11743 
H -1.66058 -0.56324  3.63215
H -0.183121 -0.619966  2.6041  
