30

C  4.21523 -2.65731  1.6264 
O  3.39222 -1.56959  2.05389
C  2.17726 -1.77215  1.40806
C  1.23316  -0.722705  1.90856 
O -0.0139283 -0.705345   1.2767   
C -0.901481  0.224288  1.71119 
C -2.04702   0.3928    0.786442
O -1.72354   1.11711  -0.424876
C -0.826833  0.475997 -1.26002 
C -1.0756    0.877647 -2.70194 
O -2.39651   0.739719 -3.11126 
C -3.34023  1.81523 -2.80226
H  4.49175  -2.54153   0.592935
H  3.85901 -3.65467  1.94289
H  5.04902 -2.37941  2.22675
H  1.72889 -2.78523  1.62164
H  2.29976  -1.70743   0.348839
H  1.06107  -0.959082  2.93475 
H 1.62269  0.300702 1.78618 
H -0.418319  1.19691   1.67555 
H -1.34063e+00 -5.08512e-04  2.71718e+00
H -2.34684  -0.610472  0.482185
H -2.78538  1.03229  1.28329
H  0.154508  0.86053  -0.980686
H -0.843935 -0.584387 -1.10679 
H -0.599133  1.91252  -2.76205 
H -0.520784  0.228719 -3.39377 
H -3.34328  2.12295 -1.81253
H -2.74059  2.68746 -3.28381
H -4.3113   1.54148 -3.2614 
