30

C  0.880404   3.12657   -0.0191051
O  0.149632  3.73349  -1.08415 
C -1.20933  3.54272 -1.09849
C -1.53192  2.1678  -1.64627
O -1.12613   1.02928  -0.828448
C -0.728418 -0.174971 -1.61537 
C  0.215852 -0.973165 -0.753628
O -0.391594 -1.61644   0.32573 
C -0.382515 -3.0073    0.336264
C  0.928233 -3.46664   1.01654 
O  0.866777 -3.65578   2.37808 
C  1.00033 -2.5455   3.22085
H  1.21745   2.16827  -0.399534
H 0.284646 3.20147  0.877668
H 1.769     3.76146   0.0723012
H -1.60717  4.34263 -1.73733
H -1.67906   3.60607  -0.162271
H -2.61761  2.10913 -1.71491
H -1.21507  2.07279 -2.72502
H -0.16941   0.188063 -2.4657  
H -1.69191  -0.644382 -1.92546 
H  0.742042 -1.79323  -1.2597  
H  0.899814 -0.205353 -0.334868
H -1.18612  -3.55567   0.790281
H -0.431303 -3.36221  -0.765781
H  1.0526   -4.4669    0.472972
H  1.74237  -2.83294   0.700013
H  0.885669 -2.98548   4.23277 
H  2.04033 -2.10774  3.15291
H  0.284154 -1.81086   3.10529 
