30

C -1.45976  -0.690123 -2.95234 
O -2.34971   0.141983 -2.23542 
C -3.12657 -0.53988 -1.26872
C -3.00032    0.33005    0.0258281
O -2.0362    -0.0680709  0.914921 
C -0.72607   0.330344  0.724589
C -0.0982628  0.117277   2.11519  
O 1.32976  0.137622 2.04602 
C  1.66054 -1.13487  1.53758
C  2.90267  -1.16111   0.613806
O  2.75448  -0.327006 -0.523418
C  2.86731   1.05494  -0.354171
H -0.544384 -1.07466  -2.48646 
H -1.02767   -0.0728253 -3.78957  
H -2.01882 -1.56744 -3.44258
H -2.88666  -1.58479  -0.984805
H -4.17301  -0.477036 -1.59608 
H -2.78962   1.41349  -0.225777
H -3.95901   0.201454  0.498474
H -0.617381  1.44019   0.555348
H -0.24001  -0.129981 -0.159363
H -0.56077   0.974356  2.58862 
H -0.50102  -0.791075  2.53695 
H  1.87771 -1.81671  2.40019
H  0.886617 -1.67861   0.951416
H  3.8229   -0.988291  1.16291 
H  2.93939  -2.19413   0.366611
H 3.77082 1.16165 0.14043
H  2.9403   1.43023 -1.42207
H 2.05669  1.51002  0.242615
