30

C -3.04715  -0.884466 -1.12722 
O -1.82942 -0.31715 -1.18837
C -1.69887  0.64243 -2.32654
C -0.302487  1.09728  -2.56797 
O  0.123515  1.95316  -1.58852 
C  1.31194   1.54564  -0.979887
C 1.33496  0.483074 0.11548 
O 0.75211  0.877151 1.35628 
C -0.242693   0.0398416  1.85769  
C  0.38123 -1.22077  2.64886
O  1.14798 -2.14502  1.86762
C  1.01429 -3.52937  2.25608
H -3.09654  -1.68819  -0.410097
H -3.27639 -1.39158 -2.0587 
H -3.87575  -0.162443 -0.923802
H -2.26672  1.48037 -2.01554
H -2.02896   0.103573 -3.19222 
H  0.39159   0.257996 -2.60203 
H -0.370329  1.58291  -3.60263 
H  1.57981  2.45177 -0.54826
H  2.13573  1.32752 -1.76763
H  0.877493 -0.508009 -0.18353 
H 2.39992  0.2473   0.217017
H -0.767056  0.628491  2.57902 
H -0.879453 -0.362067  1.05071 
H  0.963628 -0.931927  3.52795 
H -0.473315 -1.79461   3.02308 
H  1.29666 -3.68019  3.28425
H  0.0141395 -3.82298    2.16203  
H  1.67842 -4.07345  1.64576
