30

C  0.510308 -0.636554  4.195183
O -0.532332 -0.369509  3.28402 
C -0.132645  0.308529  2.11039 
C -1.387356  0.492178  1.261369
O -0.981105  1.146445  0.074061
C -1.955795  1.210736 -0.953683
C -1.323367  1.927977 -2.153013
O -0.568687  1.068286 -2.97568 
C  0.708525  0.675802 -2.503547
C  0.670557 -0.74934  -1.943691
O  2.012877 -1.101399 -1.66297 
C  2.174035 -2.346048 -1.022829
H 0.981727 0.291857 4.546851
H  0.064617 -1.157373  5.044783
H  1.281909 -1.275819  3.743358
H  0.611268 -0.27875   1.548576
H 0.306905 1.289625 2.349165
H -2.130066  1.093254  1.808252
H -1.829234 -0.490914  1.037711
H -2.835867  1.777761 -0.609702
H -2.281267  0.201395 -1.246776
H -2.120234  2.339216 -2.783585
H -0.704519  2.759325 -1.782304
H  1.397495  0.699714 -3.357394
H  1.077552  1.367019 -1.734214
H  0.060957 -0.790067 -1.029944
H  0.230079 -1.431506 -2.687936
H  1.783258 -3.168498 -1.638715
H  3.24544  -2.490472 -0.869678
H  1.664977 -2.362869 -0.048039
