30

C  0.416285 -0.726635  4.255301
O -0.590679 -0.375302  3.332662
C -0.121951  0.248548  2.154765
C -1.349144  0.545095  1.29765 
O -0.874656  1.145719  0.109906
C -1.847251  1.301255 -0.904552
C -1.374314  1.890183 -2.232806
O -0.656757  0.972642 -3.027013
C  0.655094  0.641714 -2.601376
C  0.68133  -0.755237 -1.974408
O  2.04295  -1.056859 -1.730523
C  2.262639 -2.253623 -1.020699
H 0.969297 0.158357 4.599979
H -0.081806 -1.193419  5.107184
H  1.128433 -1.440165  3.817235
H  0.563434 -0.414069  1.602003
H 0.410108 1.184566 2.385945
H -2.033327  1.219843  1.835144
H -1.883523 -0.392498  1.078774
H -2.65408   1.958759 -0.531571
H -2.303351  0.319092 -1.122361
H -2.267875  2.156869 -2.806072
H -0.778682  2.799969 -2.054654
H  1.303258  0.644319 -3.487024
H  1.038353  1.378248 -1.883078
H  0.107824 -0.767547 -1.036772
H  0.232757 -1.484339 -2.667552
H  1.868479 -3.123005 -1.565944
H  3.3428   -2.362872 -0.904221
H  1.794365 -2.219607 -0.025902
