30

C 0.958831 0.571054 2.207297
O -0.162372  0.081601  2.918764
C -0.951475 -0.892129  2.291627
C -1.886725 -0.367204  1.179923
O -1.239283  0.627318  0.409659
C -1.975979  1.082325 -0.711358
C -1.11833   2.101977 -1.47023 
O -0.154442  1.501275 -2.306997
C  1.014416  0.994696 -1.688527
C  0.960293 -0.532257 -1.580659
O  2.109143 -0.92067  -0.848566
C  2.229413 -2.308867 -0.634537
H 0.694323 1.443961 1.599931
H 1.704505 0.8702   2.950108
H  1.391231 -0.199038  1.557514
H -1.575536 -1.344436  3.071298
H -0.307553 -1.681541  1.863381
H -2.79678   0.058524  1.636236
H -2.189621 -1.216715  0.546897
H -2.910811  1.565758 -0.383474
H -2.230752  0.242721 -1.37622 
H -1.770268  2.686676 -2.129944
H -0.641974  2.7806   -0.74701 
H  1.872036  1.281493 -2.310749
H  1.150783  1.425742 -0.688342
H  0.044921 -0.847268 -1.060547
H  0.962074 -0.983677 -2.585062
H  2.293175 -2.856461 -1.585321
H  3.148589 -2.466098 -0.066821
H  1.378176 -2.699561 -0.05825 
