30

C 1.078325 0.140713 2.240209
O -0.182119  0.374329  2.835185
C -1.179141 -0.569277  2.556245
C -1.899708 -0.380059  1.189263
O -1.252158  0.600613  0.404371
C -1.978328  1.009909 -0.740689
C -1.177433  2.105194 -1.455547
O -0.181906  1.593729 -2.314457
C  1.001011  1.105565 -1.708783
C  1.003097 -0.425876 -1.673398
O  2.154851 -0.807108 -0.941817
C  2.336844 -2.198742 -0.811923
H 1.0391   0.228503 1.150011
H 1.756102 0.899619 2.636566
H  1.461403 -0.856337  2.501804
H -1.925426 -0.474636  3.354853
H -0.764508 -1.591023  2.600836
H -2.94339  -0.074286  1.373545
H -1.926667 -1.343116  0.651956
H -2.958983  1.415096 -0.441338
H -2.145675  0.162936 -1.423924
H -1.859126  2.680513 -2.092885
H -0.739284  2.777456 -0.703108
H  1.851586  1.453799 -2.308756
H  1.111617  1.494608 -0.688338
H  0.092376 -0.7982   -1.183249
H  1.036132 -0.828715 -2.697679
H  2.452889 -2.680245 -1.79308 
H  3.247484 -2.348933 -0.228539
H  1.491046 -2.666031 -0.287313
