30

C  0.04743  -1.176312  4.100715
O -0.448567 -0.094074  3.34535 
C -0.593578 -0.353666  1.963921
C -1.128759  0.927244  1.330792
O -1.274119  0.668579 -0.0509  
C -1.759592  1.756878 -0.809838
C -1.833543  1.362145 -2.306367
O -0.984616  0.308043 -2.675   
C  0.412944  0.498336 -2.517399
C  0.979007 -0.749497 -1.840843
O  2.363757 -0.521809 -1.656439
C  3.02948  -1.5168   -0.914241
H  1.047373 -1.478142  3.758169
H  0.109556 -0.838945  5.137081
H -0.623041 -2.045353  4.042884
H -1.299114 -1.180758  1.787508
H  0.373909 -0.61927   1.508273
H -0.422592  1.754342  1.505535
H -2.095518  1.192598  1.786498
H -1.094989  2.628181 -0.680747
H -2.765376  2.051743 -0.469293
H -2.845709  1.005202 -2.532644
H -1.643176  2.264122 -2.912213
H  0.882702  0.638318 -3.50207 
H  0.635197  1.375881 -1.898022
H  0.471875 -0.901365 -0.876652
H  0.80392  -1.635477 -2.470743
H  2.966468 -2.496929 -1.408242
H  4.077175 -1.217214 -0.844419
H  2.611505 -1.606     0.099364
