30

C  0.681181 -0.808713  3.933203
O -0.409476 -0.484754  3.100285
C -0.099627  0.395178  2.038084
C -1.378874  0.569148  1.222675
O -1.009479  1.230794  0.027583
C -1.996961  1.27139  -0.988265
C -1.364263  1.914283 -2.228539
O -0.55311   1.022106 -2.958647
C  0.695836  0.667209 -2.387656
C  0.648156 -0.76715  -1.853847
O  1.93408  -1.042936 -1.330055
C  2.06732  -2.3122   -0.732373
H 1.095827 0.087048 4.416518
H  0.30528  -1.489002  4.699836
H  1.48094  -1.307593  3.367613
H  0.685771 -0.029081  1.39261 
H 0.250367 1.367589 2.418229
H -2.121847  1.154911  1.785364
H -1.806282 -0.421944  1.005633
H -2.860084  1.874187 -0.662488
H -2.348298  0.256821 -1.229781
H -2.162217  2.227227 -2.91186 
H -0.791587  2.80134  -1.917926
H  1.456165  0.729584 -3.177051
H  0.973808  1.35316  -1.577647
H -0.118286 -0.858799 -1.070906
H  0.395553 -1.462922 -2.669524
H  1.87393  -3.118179 -1.454484
H  3.095985 -2.390511 -0.374632
H  1.380204 -2.428192  0.11807 
