30

C  0.581972 -0.674359  4.107995
O -0.483961 -0.386625  3.230745
C -0.11139   0.303588  2.054953
C -1.389338  0.4987    1.238147
O -0.993494  1.158115  0.045379
C -1.983531  1.243472 -0.965239
C -1.35279   1.928755 -2.183551
O -0.556858  1.058833 -2.955702
C  0.703906  0.687731 -2.423169
C  0.666649 -0.757305 -1.918166
O  1.979946 -1.064285 -1.487929
C  2.126894 -2.338988 -0.905932
H 1.071118 0.245353 4.458333
H  0.156574 -1.20313   4.9631  
H  1.334929 -1.313558  3.625591
H  0.61705  -0.279032  1.469036
H 0.336002 1.281012 2.293864
H -2.083701  1.134292  1.804395
H -1.804723 -0.489457  0.998088
H -2.840902  1.840105 -0.61391 
H -2.343348  0.241203 -1.243184
H -2.153097  2.276611 -2.847075
H -0.768931  2.797142 -1.842607
H  1.443499  0.762918 -3.230874
H  1.005328  1.357004 -1.60733 
H -0.047342 -0.855229 -1.087851
H  0.349342 -1.43002  -2.730597
H  1.861002 -3.136935 -1.613787
H  3.177085 -2.443379 -0.625831
H  1.502122 -2.442533 -0.006872
