30

C -1.50097   0.598281  5.709573
O -1.14233   0.011111  4.478735
C -1.003648  0.920891  3.406024
C -0.626142  0.095383  2.179624
O -0.476653  1.005837  1.107132
C -0.139567  0.419675 -0.136369
C -0.0765    1.564588 -1.160097
O -0.454961  1.141037 -2.452243
C  0.545277  0.623545 -3.302741
C  0.747066 -0.88306  -3.099435
O  1.628347 -1.303453 -4.121428
C  1.906401 -2.68595  -4.135334
H -2.471133  1.110212  5.640967
H -1.572726 -0.210896  6.438848
H -0.743021  1.320445  6.044322
H -0.215474  1.661627  3.61421 
H -1.946193  1.458849  3.218326
H -1.417448 -0.639562  1.964873
H  0.312564 -0.44821   2.369315
H -0.914308 -0.298994 -0.447571
H  0.821849 -0.113135 -0.065545
H -0.807973  2.323595 -0.858019
H  0.92234   2.02462  -1.170362
H  0.203646  0.79257  -4.330453
H  1.501002  1.149544 -3.16023 
H  1.176679 -1.090623 -2.106239
H -0.222542 -1.40037  -3.173179
H  0.991545 -3.276229 -4.285029
H  2.589438 -2.864161 -4.968007
H  2.385443 -3.007167 -3.199647
