30

C  0.555265 -0.636926  4.159362
O -0.478683 -0.376266  3.234107
C -0.076205  0.277903  2.056588
C -1.355032  0.470788  1.235142
O -0.976472  1.147204  0.051474
C -1.972699  1.236957 -0.952698
C -1.350986  1.933298 -2.169327
O -0.556132  1.071834 -2.952254
C  0.704033  0.692627 -2.423796
C  0.664979 -0.760201 -1.941772
O  1.972796 -1.069559 -1.496839
C  2.119298 -2.359212 -0.948453
H 1.045853 0.292752 4.480103
H  0.093916 -1.117014  5.024422
H  1.313114 -1.308887  3.733989
H  0.662554 -0.201256  1.398013
H 0.337266 1.273882 2.29891 
H -2.090858  1.056438  1.807123
H -1.79442  -0.511752  1.003052
H -2.8298    1.828067 -0.591576
H -2.331112  0.235643 -1.235768
H -2.155765  2.283412 -2.826163
H -0.768126  2.801038 -1.824996
H  1.445163  0.780675 -3.228802
H  1.004073  1.348624 -1.596844
H -0.060936 -0.873453 -1.123806
H  0.362005 -1.421342 -2.769037
H  1.874374 -3.138567 -1.684049
H  3.164659 -2.463049 -0.650653
H  1.477891 -2.49366  -0.065431
