30

C 0.675616 0.51575  3.928411
O -0.430965  0.566347  3.057706
C -0.586263 -0.564503  2.227731
C -1.653095 -0.253086  1.181597
O -1.089532  0.635332  0.235669
C -1.95583   1.05569  -0.802188
C -1.197252  2.076084 -1.65937 
O -0.304226  1.476296 -2.570191
C  0.89548   0.935473 -2.042446
C  0.823969 -0.593967 -2.007881
O  2.122842 -1.048122 -1.673335
C  2.251152 -2.447109 -1.57507 
H 1.618431 0.423814 3.371266
H 0.680184 1.451819 4.490024
H  0.596832 -0.326243  4.6314  
H -0.910419 -1.437756  2.820477
H  0.355282 -0.830757  1.722576
H -2.525106  0.207926  1.670867
H -1.974142 -1.188481  0.694927
H -2.855965  1.531838 -0.38075 
H -2.268396  0.201014 -1.422181
H -1.91922   2.635191 -2.266037
H -0.669396  2.77688  -0.995276
H  1.715949  1.233111 -2.708282
H  1.099651  1.323715 -1.03655 
H  0.090263 -0.931644 -1.261651
H  0.516363 -0.97246  -2.99564 
H  2.010992 -2.940477 -2.527844
H  3.291151 -2.655732 -1.315781
H  1.595659 -2.855946 -0.792159
