30

C  0.466633 -0.557177  4.263353
O -0.542312 -0.329769  3.304729
C -0.089422  0.235672  2.092065
C -1.337174  0.423033  1.220584
O -0.953773  1.098272  0.04503 
C -1.961015  1.22504  -0.945485
C -1.34448   1.938866 -2.154398
O -0.573813  1.083173 -2.966708
C  0.700613  0.697301 -2.479481
C  0.673078 -0.753718 -1.990989
O  2.006324 -1.083851 -1.647702
C  2.16686  -2.355443 -1.062888
H 0.963206 0.380022 4.551329
H -0.01912  -0.990447  5.139747
H  1.225021 -1.258008  3.886856
H  0.64423  -0.424419  1.600139
H 0.383575 1.215199 2.261358
H -1.976574  1.036633  1.878218
H -1.819125 -0.539439  1.005754
H -2.804444  1.820329 -0.560611
H -2.336747  0.235248 -1.24557 
H -2.153115  2.315478 -2.791684
H -0.744058  2.79004  -1.799194
H  1.413404  0.777335 -3.310426
H  1.032934  1.355771 -1.66666 
H  0.011453 -0.853773 -1.118783
H  0.296523 -1.410689 -2.790919
H  1.837406 -3.154788 -1.741863
H  3.231339 -2.478998 -0.853422
H  1.602582 -2.436895 -0.122359
