30

C  0.579191 -0.670084  4.119494
O -0.484092 -0.383602  3.232542
C -0.105138  0.306593  2.059557
C -1.37505   0.503582  1.23636 
O -0.986357  1.161538  0.045378
C -1.979639  1.246123 -0.96229 
C -1.352262  1.928206 -2.184046
O -0.559428  1.055921 -2.956686
C  0.702949  0.685407 -2.427507
C  0.666683 -0.7584   -1.918929
O  1.980847 -1.064243 -1.490511
C  2.128863 -2.337307 -0.905191
H 1.074772 0.256427 4.434775
H  0.139667 -1.234362  4.941969
H  1.33301  -1.305678  3.62926 
H  0.626229 -0.275968  1.476932
H 0.341926 1.283769 2.30099 
H -2.103169  1.106416  1.800687
H -1.827816 -0.475222  1.015451
H -2.835076  1.844278 -0.608946
H -2.341424  0.243619 -1.236653
H -2.154432  2.275136 -2.845798
H -0.766704  2.796935 -1.846912
H  1.439865  0.758412 -3.237855
H  1.007432  1.356394 -1.614217
H -0.045691 -0.854289 -1.08701 
H  0.347857 -1.433144 -2.729079
H  1.861392 -3.137231 -1.610211
H  3.179629 -2.441029 -0.627003
H  1.505973 -2.438195 -0.00453 
