30

C  0.583685 -0.67896   4.104542
O -0.482224 -0.3904    3.227557
C -0.111879  0.302742  2.055735
C -1.379558  0.502429  1.233398
O -0.990744  1.163146  0.044115
C -1.982507  1.247344 -0.965067
C -1.353124  1.929176 -2.185961
O -0.558312  1.056974 -2.956698
C  0.702852  0.686522 -2.424459
C  0.665998 -0.758107 -1.918236
O  1.977851 -1.062108 -1.481529
C  2.124725 -2.336365 -0.898464
H 1.071012 0.240601 4.457739
H  0.15874  -1.211035  4.957784
H  1.337961 -1.315289  3.620446
H  0.638931 -0.25608   1.471591
H 0.359696 1.272838 2.285889
H -2.107607  1.103941  1.799296
H -1.832613 -0.475767  1.010204
H -2.838581  1.845455 -0.613211
H -2.343698  0.244729 -1.239793
H -2.154199  2.275368 -2.84941 
H -0.768699  2.798381 -1.848099
H  1.44212   0.761395 -3.232487
H  1.004479  1.356356 -1.609179
H -0.051701 -0.856484 -1.091215
H  0.353774 -1.43234  -2.731377
H  1.864105 -3.135052 -1.607439
H  3.173753 -2.438357 -0.61317 
H  1.495774 -2.441051 -0.00248 
