30

C  0.229708 -0.692703  4.440408
O -0.718542 -0.495652  3.415326
C -0.267391  0.293682  2.33399 
C -1.430176  0.39716   1.351071
O -0.958123  1.141891  0.244241
C -1.822289  1.182003 -0.87984 
C -1.079633  1.912441 -2.01382 
O -0.747441  1.040855 -3.075407
C  0.546698  0.475401 -3.067614
C  0.724872 -0.570395 -1.960821
O  1.972485 -1.193223 -2.204922
C  2.335328 -2.169452 -1.255339
H 0.536595 0.26197  4.890153
H -0.249431 -1.311038  5.201802
H  1.12358  -1.210025  4.064263
H  0.596718 -0.174195  1.834636
H 0.029508 1.298608 2.672971
H -2.286614  0.897897  1.827938
H -1.743028 -0.611908  1.041373
H -2.750628  1.715603 -0.621626
H -2.087589  0.165024 -1.204592
H -1.719093  2.702088 -2.427067
H -0.179576  2.389511 -1.600429
H  0.672282 -0.013104 -4.039819
H  1.316197  1.255706 -2.963197
H  0.720349 -0.093792 -0.969462
H -0.096171 -1.304062 -2.002439
H  1.612205 -2.99715  -1.235305
H  3.313474 -2.554271 -1.550497
H  2.405736 -1.738866 -0.245955
