30

C  0.444243 -0.856     4.039275
O -0.550896 -0.209233  3.277957
C -0.22987  -0.035522  1.912754
C -1.406818  0.696149  1.274052
O -1.075247  0.884037 -0.087264
C -2.039776  1.581502 -0.84889 
C -1.553559  1.744509 -2.309045
O -0.779866  0.675903 -2.789147
C  0.574987  0.595927 -2.3726  
C  0.829855 -0.819603 -1.854669
O  2.176726 -0.860218 -1.419519
C  2.566291 -2.077343 -0.827955
H  1.38382  -0.285771  4.036065
H  0.068618 -0.923967  5.062022
H  0.6439   -1.867969  3.65936 
H -0.080016 -1.007513  1.415914
H 0.688218 0.560925 1.794021
H -1.563173  1.662164  1.778999
H -2.324354  0.095966  1.377316
H -2.228583  2.579983 -0.423069
H -2.990957  1.022396 -0.838192
H -2.434707  1.810773 -2.957644
H -0.991956  2.690077 -2.39505 
H  1.230307  0.798211 -3.232704
H  0.800773  1.323087 -1.584053
H  0.140549 -1.03993  -1.026393
H  0.652883 -1.552028 -2.657926
H  2.46416  -2.916881 -1.530445
H  3.615391 -1.974125 -0.542966
H  1.969065 -2.295506  0.069817
