30

C  0.586905 -0.67705   4.103876
O -0.476552 -0.390563  3.223309
C -0.102709  0.309773  2.054097
C -1.374435  0.502292  1.232022
O -0.988708  1.165496  0.043847
C -1.981113  1.248701 -0.964935
C -1.352453  1.930123 -2.186426
O -0.55784   1.057688 -2.957182
C  0.702764  0.686129 -2.424366
C  0.664865 -0.759283 -1.920432
O  1.974375 -1.062144 -1.476014
C  2.120256 -2.338636 -0.897561
H 1.068279 0.243508 4.462671
H  0.160778 -1.214202  4.953368
H  1.346408 -1.308141  3.621048
H  0.633006 -0.263709  1.468183
H 0.336691 1.288777 2.301656
H -2.107091  1.091941  1.804097
H -1.819162 -0.479518  1.006818
H -2.837292  1.84655  -0.612994
H -2.341916  0.245744 -1.238894
H -2.153792  2.275958 -2.849731
H -0.76798   2.799528 -1.849161
H  1.442891  0.762214 -3.231495
H  1.003763  1.354422 -1.607606
H -0.057884 -0.859736 -1.098056
H  0.35859  -1.432897 -2.736341
H  1.866767 -3.134766 -1.611975
H  3.167458 -2.439277 -0.605175
H  1.48514  -2.448922 -0.00663 
