30

C  0.520621 -0.69635   4.175799
O -0.50767  -0.405039  3.246931
C -0.121135  0.280975  2.07452 
C -1.386572  0.456932  1.238823
O -0.997778  1.123665  0.052819
C -1.989863  1.207531 -0.956303
C -1.374042  1.926163 -2.162867
O -0.56633   1.084624 -2.953793
C  0.705126  0.729892 -2.43601 
C  0.698759 -0.72051  -1.945106
O  2.028504 -1.017501 -1.560624
C  2.205845 -2.293103 -0.989334
H  1.507114 -0.422574  3.785808
H  0.346354 -0.141495  5.105858
H  0.510621 -1.769726  4.394282
H  0.620454 -0.29666   1.500629
H 0.309368 1.266793 2.309436
H -2.129826  1.046512  1.797343
H -1.820751 -0.528946  1.01224 
H -2.858031  1.781203 -0.593672
H -2.330457  0.203352 -1.250911
H -2.182139  2.273294 -2.817293
H -0.80369   2.797512 -1.806938
H  1.435352  0.824958 -3.250076
H  1.002799  1.397266 -1.617124
H  0.013258 -0.835423 -1.093308
H  0.362868 -1.38771  -2.75462 
H  1.924357 -3.090618 -1.691635
H  3.265469 -2.389008 -0.743864
H  1.611426 -2.406009 -0.070989
