30

C  0.077129 -1.152026  4.090725
O -0.466506 -0.088004  3.342313
C -0.560709 -0.329152  1.95309 
C -1.158401  0.928483  1.32925 
O -1.257834  0.686384 -0.059435
C -1.791912  1.756993 -0.810818
C -1.81964   1.38376  -2.316274
O -0.970958  0.325137 -2.670699
C  0.423897  0.508255 -2.482386
C  0.973895 -0.763554 -1.838595
O  2.357357 -0.550288 -1.628791
C  3.008482 -1.57397  -0.913213
H  1.101886 -1.385093  3.76845 
H  0.092981 -0.831553  5.134169
H -0.536554 -2.059422  4.000412
H -1.209374 -1.194249  1.743699
H  0.43231  -0.526132  1.518318
H -0.507668  1.793343  1.53384 
H -2.149169  1.126906  1.767146
H -1.179768  2.662247 -0.658081
H -2.817452  1.989179 -0.480687
H -2.82783   1.043247 -2.582088
H -1.597923  2.290817 -2.903582
H  0.912493  0.681072 -3.452709
H  0.635219  1.363114 -1.828562
H  0.452717 -0.942715 -0.88657 
H  0.802418 -1.62804  -2.498668
H  2.94415  -2.536735 -1.440099
H  4.057376 -1.284256 -0.822699
H  2.579398 -1.693748  0.092566
