30

C -1.685974  0.567964  5.654276
O -1.168952  0.005581  4.469078
C -1.050926  0.907728  3.387386
C -0.491214  0.110442  2.213049
O -0.360518  1.014908  1.133396
C  0.125036  0.448467 -0.070185
C  0.132574  1.569056 -1.126862
O -0.454137  1.155902 -2.343877
C  0.391883  0.610409 -3.331463
C  0.720987 -0.863578 -3.064208
O  1.420846 -1.322979 -4.203117
C  1.779355 -2.686526 -4.170776
H -2.699316  0.964595  5.499953
H -1.722652 -0.232067  6.396154
H -1.042491  1.37733   6.027019
H -0.368398  1.73599   3.635142
H -2.030391  1.332628  3.11714 
H -1.178002 -0.71144   1.957419
H  0.484066 -0.322273  2.485859
H -0.542696 -0.360464 -0.406278
H 1.131942 0.027586 0.080289
H -0.488497  2.389665 -0.748248
H  1.151183  1.948777 -1.292188
H -0.151451  0.680597 -4.280269
H  1.325469  1.187034 -3.41765 
H  1.34135  -0.967379 -2.159256
H -0.21054  -1.432114 -2.914591
H  0.892336 -3.331519 -4.100343
H  2.305043 -2.898833 -5.103615
H  2.444095 -2.905489 -3.323214
