30

C  0.566418 -0.668279  4.123869
O -0.49427  -0.377796  3.240871
C -0.117111  0.305407  2.068571
C -1.380715  0.506137  1.240315
O -0.986069  1.155565  0.046811
C -1.979248  1.243915 -0.960707
C -1.351595  1.927836 -2.181331
O -0.562378  1.05596  -2.957952
C  0.702627  0.685256 -2.435227
C  0.669329 -0.757985 -1.924885
O  1.988371 -1.066396 -1.513629
C  2.13968  -2.335817 -0.921378
H 1.059168 0.249863 4.472838
H  0.134805 -1.192154  4.978769
H  1.317218 -1.312768  3.645285
H  0.647568 -0.320198  1.454713
H 0.351023 1.274214 2.297835
H -2.104885  1.11778   1.800794
H -1.841323 -0.469928  1.024027
H -2.833534  1.842818 -0.605849
H -2.34282   0.242586 -1.236961
H -2.154046  2.278798 -2.84065 
H -0.763402  2.794136 -1.842543
H  1.434823  0.757003 -3.24994 
H  1.012018  1.357246 -1.624565
H -0.032155 -0.851387 -1.083556
H  0.338351 -1.432666 -2.730217
H  1.857596 -3.139677 -1.616167
H  3.194156 -2.442421 -0.658737
H  1.530411 -2.427046 -0.010384
