30

C 0.881854 0.399953 3.629672
O -0.293683  0.541295  2.866944
C -0.710016 -0.628017  2.194851
C -1.77266  -0.245296  1.166696
O -1.182925  0.64088   0.23677 
C -2.016087  1.054676 -0.829693
C -1.236361  2.082523 -1.658705
O -0.298363  1.49169  -2.529046
C  0.89225   0.982463 -1.951294
C  0.852845 -0.547688 -1.900359
O  2.153027 -0.969241 -1.529417
C  2.29886  -2.360846 -1.371862
H 1.729506 0.089225 3.002751
H 1.096573 1.377958 4.064478
H  0.752917 -0.333765  4.438673
H -1.132281 -1.363149  2.900022
H  0.142284 -1.093974  1.673555
H -2.621113  0.242498  1.67299 
H -2.138628 -1.156851  0.666832
H -2.934698  1.523034 -0.440335
H -2.299112  0.197914 -1.461007
H -1.940414  2.629744 -2.296568
H -0.745962  2.792496 -0.975962
H  1.730034  1.290049 -2.590535
H  1.050983  1.386767 -0.943544
H  0.109341 -0.892873 -1.167567
H  0.577378 -0.944482 -2.89046 
H  2.078918 -2.896702 -2.306437
H  3.33775  -2.544132 -1.089872
H  1.637794 -2.746152 -0.581552
