30

C  0.555062 -0.663082  4.135331
O -0.503678 -0.371106  3.250349
C -0.123319  0.301319  2.074944
C -1.383792  0.50737   1.244453
O -0.984265  1.148896  0.048352
C -1.977849  1.241158 -0.958486
C -1.350371  1.927071 -2.178084
O -0.564964  1.055554 -2.958835
C  0.702659  0.684644 -2.44279 
C  0.671802 -0.757323 -1.928686
O  1.996028 -1.069486 -1.537291
C  2.150171 -2.333533 -0.934482
H 1.054284 0.253882 4.477973
H  0.119972 -1.178308  4.99368 
H  1.301023 -1.315841  3.660456
H  0.648273 -0.347241  1.453357
H 0.358222 1.265286 2.294929
H -2.103453  1.127046  1.80211 
H -1.851985 -0.465959  1.032334
H -2.830895  1.840606 -0.601611
H -2.34318   0.241019 -1.236728
H -2.153189  2.282178 -2.834766
H -0.759341  2.790819 -1.837737
H  1.429723  0.753497 -3.262316
H  1.017752  1.358626 -1.635916
H -0.016719 -0.846392 -1.076309
H  0.326032 -1.432497 -2.727369
H  1.850559 -3.1429   -1.615407
H  3.20854  -2.444124 -0.689742
H  1.556907 -2.411179 -0.01169 
