30

C  0.585892 -0.660934  4.120268
O -0.482978 -0.376257  3.23453 
C -0.103259  0.311197  2.060106
C -1.373522  0.506935  1.237033
O -0.985283  1.161991  0.044254
C -1.979518  1.245068 -0.962592
C -1.353884  1.926732 -2.185478
O -0.561772  1.054382 -2.958795
C  0.701806  0.685152 -2.431641
C  0.667395 -0.757867 -1.920675
O  1.983703 -1.063836 -1.498904
C  2.13348  -2.334909 -0.909746
H 1.044926 0.187981 4.437221
H  0.148076 -1.191486  4.969875
H  1.321883 -1.323654  3.639486
H  0.627004 -0.273756  1.478332
H 0.344667 1.28886  2.297712
H -2.101023  1.111442  1.800359
H -1.826856 -0.472174  1.018717
H -2.835061  1.842868 -0.6089  
H -2.34084   0.242093 -1.235853
H -2.157021  2.27311  -2.846351
H -0.768179  2.795816 -1.849511
H  1.436906  0.757031 -3.243733
H  1.0078    1.357698 -1.620188
H -0.040468 -0.852176 -1.084765
H  0.343847 -1.43358  -2.728141
H  1.860711 -3.137097 -1.610151
H  3.185745 -2.439068 -0.637438
H  1.515832 -2.431561 -0.00501 
