30

C  0.498878 -0.393742  4.294559
O -0.549314 -0.17125   3.37777 
C -0.132532  0.062496  2.048919
C -1.389881  0.322866  1.219729
O -0.979078  1.043824  0.0727  
C -1.964516  1.211646 -0.932161
C -1.322985  1.974958 -2.097115
O -0.533212  1.153606 -2.926672
C  0.729907  0.747812 -2.426797
C  0.692013 -0.722115 -1.999157
O  2.016734 -1.066527 -1.637331
C  2.163914 -2.360474 -1.100497
H 1.170617 0.474154 4.351925
H  0.038262 -0.557036  5.270691
H  1.088643 -1.279843  4.020311
H  0.414197 -0.808176  1.65049 
H 0.53339  0.93701  1.979545
H -2.102184  0.914661  1.81589 
H -1.873926 -0.623981  0.936736
H -2.816596  1.790783 -0.541156
H -2.33375   0.235457 -1.281512
H -2.117907  2.37677  -2.736226
H -0.731703  2.811193 -1.694368
H  1.461531  0.861598 -3.237186
H  1.043175  1.372139 -1.580173
H  0.009562 -0.857944 -1.148006
H  0.335388 -1.345672 -2.834178
H  1.850148 -3.131863 -1.818138
H  3.223243 -2.493245 -0.87151 
H  1.577989 -2.479105 -0.177065
