30

C  0.76609  -0.661446  3.971829
O -0.420013 -0.448071  3.242503
C -0.228412  0.258894  2.038726
C -1.488757  0.462816  1.207059
O -1.053726  1.153698  0.052311
C -2.000963  1.260256 -0.996847
C -1.314799  1.958655 -2.177284
O -0.487052  1.095807 -2.923458
C  0.742274  0.705331 -2.333489
C  0.672251 -0.753136 -1.87247 
O  1.942232 -1.062418 -1.329107
C  2.051192 -2.357004 -0.783137
H 1.235827 0.289884 4.259253
H  0.490469 -1.213161  4.87252 
H  1.490386 -1.251917  3.392627
H  0.502052 -0.273482  1.403339
H 0.198071 1.2557   2.250211
H -2.237806  1.052139  1.759226
H -1.937498 -0.506596  0.938482
H -2.868525  1.857126 -0.672233
H -2.354537  0.264408 -1.303956
H -2.083735  2.316872 -2.871587
H -0.744814  2.821085 -1.799711
H  1.526123  0.801631 -3.095957
H  0.999149  1.349014 -1.482763
H -0.115553 -0.877496 -1.115638
H  0.437958 -1.406602 -2.72765 
H  1.867867 -3.129962 -1.542968
H  3.07061  -2.459725 -0.405699
H  1.343652 -2.502301  0.045888
