30

C 0.967332 0.575709 2.207143
O -0.15877   0.095742  2.920209
C -0.949127 -0.875127  2.298645
C -1.877719 -0.370379  1.170558
O -1.239649  0.633671  0.403976
C -1.975787  1.079024 -0.721193
C -1.120268  2.097763 -1.483738
O -0.152357  1.495874 -2.315101
C  1.014781  0.992814 -1.690489
C  0.96316  -0.534121 -1.580734
O  2.107208 -0.919537 -0.839614
C  2.228893 -2.307416 -0.624075
H 0.705565 1.442584 1.590103
H 1.710653 0.881141 2.949525
H  1.399732 -0.202112  1.567191
H -1.605349 -1.273091  3.085895
H -0.357662 -1.732274  1.930952
H -2.799888  0.041501  1.614366
H -2.158809 -1.226575  0.536407
H -2.913593  1.560135 -0.398376
H -2.225262  0.234606 -1.381982
H -1.772587  2.676761 -2.148054
H -0.647751  2.781806 -0.763102
H  1.87468   1.280591 -2.309106
H  1.145496  1.425484 -0.690274
H  0.044512 -0.850185 -1.067077
H  0.97322  -0.987045 -2.584411
H  2.301121 -2.855196 -1.574141
H  3.144076 -2.462387 -0.049338
H  1.37416  -2.699759 -0.054148
