30

C -0.419142 -0.480465  4.085501
O  0.745506 -0.309166  3.311249
C 0.690641 0.305126 2.035699
C -0.712384  0.588983  1.494294
O -0.505898  1.165489  0.217204
C -1.676782  1.360819 -0.558536
C -1.259761  1.989062 -1.894054
O -0.765169  1.04627  -2.816245
C  0.547393  0.553642 -2.60355 
C  0.506888 -0.871216 -2.044   
O  1.847647 -1.322946 -2.013879
C  2.038665 -2.568311 -1.382857
H -1.148424 -1.144931  3.601567
H -0.092894 -0.944624  5.019551
H -0.908425  0.474891  4.322264
H  1.199654 -0.360508  1.32309 
H 1.252781 1.250665 2.071209
H -1.262705  1.287991  2.143501
H -1.296152 -0.340641  1.404136
H -2.37191   2.038463 -0.0371  
H -2.187785  0.402727 -0.737716
H -2.143532  2.437971 -2.362516
H -0.517952  2.778785 -1.701478
H  1.057148  0.53659  -3.575404
H  1.111115  1.203911 -1.922143
H  0.072196 -0.876381 -1.034146
H -0.112316 -1.510742 -2.692929
H  1.484278 -3.367771 -1.894791
H  3.107265 -2.787788 -1.426977
H  1.720062 -2.535894 -0.330922
