30

C  0.617915 -0.708224  4.058501
O -0.461642 -0.403481  3.204054
C -0.110338  0.330456  2.048301
C -1.387617  0.525039  1.23935 
O -0.997594  1.181198  0.044748
C -1.985089  1.251581 -0.969217
C -1.353507  1.926327 -2.192981
O -0.551622  1.051333 -2.953296
C  0.70475   0.683699 -2.407848
C  0.663777 -0.759822 -1.89878 
O  1.968799 -1.059102 -1.438979
C  2.111329 -2.335222 -0.858811
H 1.100702 0.204734 4.434399
H  0.208866 -1.270796  4.89989 
H  1.372297 -1.321688  3.545796
H  0.621726 -0.220685  1.437497
H 0.324167 1.306546 2.315848
H -2.149127  1.116475  1.768808
H -1.823555 -0.461559  1.013105
H -2.845966  1.848178 -0.626331
H -2.340087  0.244874 -1.237145
H -2.152957  2.263858 -2.862782
H -0.774134  2.800622 -1.859517
H  1.452095  0.757602 -3.208515
H  0.997446  1.355578 -1.591062
H -0.067684 -0.858324 -1.083892
H  0.367225 -1.436904 -2.715406
H  1.868558 -3.132001 -1.576213
H  3.155264 -2.43297  -0.554015
H  1.466014 -2.447321  0.024512
