30

C  0.619883 -0.658663  4.08287 
O -0.463119 -0.39414   3.219424
C -0.1211    0.307412  2.040738
C -1.40513   0.477631  1.231453
O -1.004835  1.14975   0.050557
C -1.984813  1.245317 -0.969649
C -1.34025   1.938951 -2.17591 
O -0.53668   1.07389  -2.945647
C  0.715211  0.693193 -2.398975
C  0.666448 -0.757803 -1.912378
O  1.96878  -1.069419 -1.453179
C  2.103355 -2.353169 -0.888107
H 1.091559 0.271506 4.429593
H  0.217608 -1.199247  4.941774
H  1.381732 -1.278863  3.589712
H  0.614924 -0.255674  1.4456  
H 0.304334 1.295207 2.276612
H -2.142614  1.068251  1.795132
H -1.839708 -0.50634   1.000693
H -2.844433  1.840687 -0.621943
H -2.343536  0.245958 -1.258895
H -2.132771  2.29263  -2.845628
H -0.759242  2.804112 -1.82208 
H  1.46729   0.77664  -3.194249
H  1.005725  1.351415 -1.570342
H -0.067995 -0.865816 -1.10138 
H  0.369776 -1.420937 -2.740325
H  1.858529 -3.139992 -1.615725
H  3.145969 -2.459839 -0.581804
H  1.455112 -2.472649 -0.007922
