30

C  0.230722 -0.205087  4.422178
O -0.257401 -0.740725  3.212711
C  0.075614 -0.036631  2.030292
C -1.219828  0.299316  1.28723 
O -0.84627   1.006817  0.119733
C -1.88057   1.215379 -0.827403
C -1.28694   1.984921 -2.013601
O -0.575474  1.160069 -2.907362
C  0.704153  0.70789  -2.496918
C  0.649856 -0.767063 -2.089078
O  1.986299 -1.158698 -1.835307
C  2.131478 -2.463244 -1.322846
H -0.141767  0.814277  4.593261
H -0.130443 -0.854642  5.222367
H  1.329168 -0.189889  4.441699
H  0.710422 -0.668227  1.392975
H 0.618973 0.890991 2.253874
H -1.873784  0.912039  1.927188
H -1.752688 -0.629094  1.031944
H -2.695503  1.807231 -0.380276
H -2.291911  0.254292 -1.171164
H -2.106522  2.424883 -2.593834
H -0.646725  2.793973 -1.630377
H  1.384304  0.81317  -3.352012
H  1.091015  1.309133 -1.664007
H  0.030098 -0.895547 -1.19022 
H  0.210327 -1.364339 -2.903583
H  1.741285 -3.215771 -2.022784
H  3.200117 -2.631237 -1.174654
H  1.612005 -2.574187 -0.360005
