30

C  0.568109 -0.669805  4.126904
O -0.486413 -0.400105  3.229793
C -0.106344  0.293112  2.058492
C -1.375788  0.490674  1.234715
O -0.98714   1.153902  0.046693
C -1.980034  1.241245 -0.96118 
C -1.353655  1.931051 -2.179119
O -0.559224  1.064453 -2.956485
C  0.704051  0.69364  -2.429666
C  0.670881 -0.752767 -1.928287
O  1.986512 -1.059042 -1.504738
C  2.137335 -2.334251 -0.924807
H 1.147249 0.237449 4.347352
H  0.118152 -1.046137  5.047531
H  1.25131  -1.429541  3.720777
H  0.626289 -0.286326  1.474423
H 0.338818 1.269952 2.30397 
H -2.105592  1.089949  1.800669
H -1.826456 -0.488136  1.009641
H -2.837046  1.835578 -0.605236
H -2.339303  0.239297 -1.240806
H -2.15638   2.280175 -2.839042
H -0.7697    2.798976 -1.837168
H  1.440402  0.771984 -3.240018
H  1.007684  1.361246 -1.613268
H -0.039237 -0.853854 -1.095067
H  0.350893 -1.423772 -2.741081
H  1.868799 -3.131671 -1.632252
H  3.188933 -2.438004 -0.649799
H  1.516907 -2.439271 -0.022921
