30

C  0.379787 -0.648579  4.30311 
O -0.630472 -0.387369  3.354475
C -0.191273  0.283959  2.191501
C -1.418649  0.474603  1.305001
O -0.97103   1.117832  0.126563
C -1.927153  1.21267  -0.916378
C -1.263706  1.919918 -2.106757
O -0.641226  1.02705  -3.003485
C  0.679416  0.611139 -2.714073
C  0.70186  -0.701912 -1.924313
O  2.048569 -1.140237 -1.925213
C  2.290462 -2.294497 -1.154536
H 0.838788 0.282114 4.665013
H -0.095506 -1.163888  5.1399  
H  1.166551 -1.290749  3.882697
H  0.564677 -0.310387  1.652918
H 0.248622 1.262479 2.440194
H -2.170976  1.08616   1.826428
H -1.863758 -0.505342  1.073742
H -2.797881  1.797557 -0.57935 
H -2.272667  0.213286 -1.220581
H -2.036959  2.442843 -2.68263 
H -0.545526  2.661754 -1.727147
H  1.178331  0.445829 -3.676784
H  1.228161  1.388829 -2.163962
H  0.349976 -0.545727 -0.895368
H  0.045653 -1.440089 -2.412115
H  1.715601 -3.154221 -1.527266
H  3.356992 -2.514505 -1.233858
H  2.033347 -2.13052  -0.097708
