30

C 0.632668 0.523891 3.988611
O -0.464002  0.555374  3.104431
C -0.552801 -0.548022  2.227963
C -1.626037 -0.247282  1.184951
O -1.070315  0.640786  0.233579
C -1.944901  1.059063 -0.798343
C -1.191964  2.074613 -1.666149
O -0.308963  1.469543 -2.583273
C  0.892952  0.92496  -2.064547
C  0.815806 -0.604139 -2.027879
O  2.113625 -1.062769 -1.695539
C  2.238169 -2.46241  -1.601095
H 1.585889 0.501464 3.442149
H 0.583448 1.435214 4.587561
H  0.587013 -0.349091  4.655782
H -0.833201 -1.460223  2.782666
H  0.405671 -0.739526  1.721144
H -2.498702  0.209853  1.676229
H -1.943611 -1.185282  0.700989
H -2.840314  1.538552 -0.370748
H -2.264604  0.202661 -1.412245
H -1.918197  2.633354 -2.26802 
H -0.656214  2.776481 -1.009528
H  1.709308  1.219014 -2.736999
H  1.106476  1.313228 -1.060605
H  0.082354 -0.937959 -1.279633
H  0.504561 -0.98277  -3.014429
H  1.996026 -2.952489 -2.555049
H  3.277774 -2.674531 -1.34309 
H  1.582097 -2.87156  -0.818863
