30

C  0.481986 -0.701271  4.17987 
O -0.529171 -0.36519   3.256215
C -0.072009  0.295465  2.094097
C -1.31082   0.554312  1.244077
O -0.947164  1.1826    0.032401
C -1.966642  1.242382 -0.949949
C -1.376906  1.906344 -2.200007
O -0.60603   1.02339  -2.982459
C  0.677283  0.67187  -2.492613
C  0.668768 -0.75625  -1.940138
O  2.008951 -1.060491 -1.599941
C  2.188015 -2.305941 -0.966382
H 1.003545 0.194365 4.545405
H -0.006966 -1.19992   5.018883
H  1.219906 -1.383078  3.734031
H  0.64253  -0.332844  1.537986
H 0.425186 1.245024 2.347943
H -2.013529  1.185943  1.811908
H -1.807426 -0.4093    1.044769
H -2.816481  1.841337 -0.584583
H -2.328627  0.23266  -1.19627 
H -2.199255  2.241892 -2.842613
H -0.783301  2.781021 -1.89384 
H  1.380398  0.721427 -3.33411 
H  1.011573  1.36898  -1.713551
H  0.019061 -0.822865 -1.055822
H  0.287662 -1.450925 -2.705297
H  1.856183 -3.134801 -1.607762
H  3.256193 -2.412539 -0.766625
H  1.637096 -2.353598 -0.015603
