30

C  0.641337 -0.728072  4.068201
O -0.426716 -0.411637  3.20209 
C -0.057027  0.318435  2.0573  
C -1.412616  0.533074  1.207604
O -1.026477  1.199253  0.027814
C -2.00471   1.256293 -0.997643
C -1.363709  1.927087 -2.218582
O -0.54713   1.052484 -2.963655
C  0.701805  0.690519 -2.397367
C  0.658313 -0.754161 -1.891807
O  1.952624 -1.04479  -1.397525
C  2.093669 -2.327956 -0.83247 
H 1.127828 0.17982  4.451144
H  0.217896 -1.288736  4.903643
H  1.395483 -1.347049  3.562103
H  0.659789 -0.233436  1.432794
H 0.361424 1.301698 2.313868
H -2.118881  1.128556  1.802046
H -1.848492 -0.452778  0.995618
H -2.872853  1.849196 -0.667611
H -2.349603  0.245414 -1.262295
H -2.157437  2.254776 -2.899934
H -0.794081  2.807419 -1.884212
H  1.462707  0.769679 -3.184672
H  0.976866  1.362132 -1.574368
H -0.09424  -0.859656 -1.097208
H  0.38884  -1.431878 -2.717242
H  1.883663 -3.116357 -1.569209
H  3.128855 -2.417303 -0.496834
H  1.422885 -2.462028  0.028431
