30

C  0.588751 -0.644957  4.132209
O -0.485657 -0.36636   3.24164 
C -0.103392  0.313806  2.064312
C -1.373166  0.509948  1.240425
O -0.983532  1.159966  0.045273
C -1.97853   1.24288  -0.960839
C -1.35434   1.925037 -2.184195
O -0.563903  1.052954 -2.959531
C  0.7014    0.684452 -2.43611 
C  0.669205 -0.757665 -1.922391
O  1.989257 -1.065639 -1.51386 
C  2.141241 -2.333254 -0.91792 
H 1.02353  0.142335 4.412747
H  0.14196  -1.169869  4.982513
H  1.305235 -1.333809  3.654865
H  0.624477 -0.276846  1.485021
H 0.348066 1.291381 2.29582 
H -2.099032  1.118299  1.801716
H -1.829059 -0.468722  1.025554
H -2.833942  1.840368 -0.606318
H -2.339793  0.239834 -1.233943
H -2.158358  2.272337 -2.843524
H -0.767697  2.793599 -1.848509
H  1.433439  0.754563 -3.251102
H  1.010454  1.358741 -1.627224
H -0.029971 -0.849331 -1.078972
H  0.335954 -1.433901 -2.725464
H  1.857329 -3.139149 -1.609589
H  3.196229 -2.43956  -0.657203
H  1.533855 -2.421438 -0.005381
