30

C  0.522142 -0.650939  4.187041
O -0.52296  -0.356531  3.287122
C -0.112236  0.278221  2.093164
C -1.364791  0.488877  1.256122
O -0.964374  1.131098  0.046338
C -1.967514  1.225421 -0.948132
C -1.354737  1.92097  -2.169863
O -0.575095  1.056211 -2.96398 
C  0.698941  0.686182 -2.463807
C  0.676269 -0.755264 -1.947441
O  2.009917 -1.073228 -1.593947
C  2.174675 -2.335534 -0.990606
H 1.039661 0.262633 4.51163 
H  0.068192 -1.134187  5.054261
H  1.257204 -1.332736  3.736487
H  0.599779 -0.351875  1.53613 
H 0.369782 1.245683 2.303189
H -2.060547  1.210172  1.715178
H -1.869121 -0.465857  1.05883 
H -2.819131  1.82041  -0.57865 
H -2.333672  0.226611 -1.230204
H -2.165066  2.278136 -2.816121
H -0.762232  2.783966 -1.830208
H  1.414918  0.753546 -3.293136
H  1.024483  1.361937 -1.662518
H  0.012564 -0.841323 -1.075311
H  0.304911 -1.429125 -2.735661
H  1.851579 -3.146075 -1.659296
H  3.238995 -2.450845 -0.77564 
H  1.607474 -2.406556 -0.050952
