30

C  0.384201 -0.942665  4.012206
O -0.537971 -0.162929  3.284464
C -0.31361  -0.131727  1.889399
C -1.385853  0.774698  1.29151 
O -1.15648   0.805075 -0.102585
C -1.99292   1.681191 -0.828683
C -1.637862  1.640164 -2.342235
O -0.844991  0.550563 -2.730345
C  0.525609  0.567496 -2.359527
C  0.876633 -0.821603 -1.827989
O  2.224114 -0.768627 -1.396503
C  2.700826 -1.957937 -0.811884
H  1.409286 -0.56425   3.893438
H  0.096627 -0.877325  5.063295
H  0.357084 -1.994675  3.694672
H -0.391964 -1.140566  1.453631
H 0.684956 0.270837 1.657789
H -1.305604  1.782972  1.727149
H -2.386785  0.375428  1.518477
H -1.883575  2.713413 -0.457484
H -3.047154  1.386622 -0.691071
H -2.567914  1.560405 -2.91707 
H -1.148475  2.589521 -2.618652
H  1.143616  0.799648 -3.239797
H  0.72714   1.316344 -1.584689
H  0.204323 -1.074536 -0.994761
H  0.746045 -1.574367 -2.621164
H  2.657973 -2.798676 -1.519041
H  3.74033  -1.781254 -0.527879
H  2.122406 -2.223239  0.085348
