30

C  1.3661   -0.188462  2.943203
O 0.436957 0.116346 1.930252
C -0.908426  0.111008  2.351178
C -1.833738  0.651618  1.23506 
O -1.070758  1.15316   0.162645
C -1.807918  1.50829  -0.991316
C -0.811115  1.875532 -2.101542
O -0.515357  0.76736  -2.927004
C  0.688158  0.064768 -2.689411
C  0.66014  -0.74539  -1.388472
O  1.697282 -1.707015 -1.502819
C  1.870113 -2.504146 -0.354765
H  1.216091 -1.204498  3.336328
H  2.358046 -0.12116   2.492841
H 1.298185 0.52554  3.776554
H -1.020631  0.740343  3.25084 
H -1.223661 -0.911374  2.621616
H -2.481559  1.442009  1.650836
H -2.489861 -0.162077  0.88077 
H -2.461517  2.369659 -0.776127
H -2.435547  0.668658 -1.327164
H -1.26824   2.637969 -2.746219
H  0.09916   2.295151 -1.652119
H  0.799601 -0.629066 -3.530099
H  1.548329  0.752008 -2.68597 
H  0.829856 -0.101949 -0.515601
H -0.31898  -1.237142 -1.277599
H  0.969875 -3.097773 -0.138823
H  2.705305 -3.179314 -0.553528
H  2.104119 -1.890052  0.526475
