30

C 0.457335 0.315748 4.314872
O -0.587049  0.337787  3.368492
C -0.313653 -0.357436  2.166723
C -1.468552 -0.089422  1.196472
O -0.985053  0.772094  0.180669
C -1.919556  1.114112 -0.827565
C -1.219266  2.054143 -1.816052
O -0.392618  1.373905 -2.733155
C  0.834395  0.859215 -2.243543
C  0.754418 -0.663062 -2.097606
O  2.054079 -1.100333 -1.745369
C  2.175899 -2.489874 -1.549292
H 1.371608 0.773486 3.911862
H 0.117054 0.89221  5.177219
H  0.687486 -0.710614  4.635005
H -0.217113 -1.437723  2.363909
H  0.625881 -0.002371  1.716736
H -2.300412  0.38239   1.740638
H -1.83011  -1.03151   0.754109
H -2.787953  1.629551 -0.386412
H -2.275027  0.213899 -1.352306
H -1.979771  2.567031 -2.41632 
H -0.645167  2.803509 -1.250516
H  1.615068  1.103044 -2.975799
H  1.10183   1.312074 -1.280382
H  0.027208 -0.939046 -1.320209
H  0.432029 -1.111346 -3.050743
H  1.923328 -3.047817 -2.462298
H  3.217392 -2.685669 -1.286185
H  1.526301 -2.837972 -0.732936
