30

C  0.982076 -0.784633  3.663717
O -0.2003   -0.543217  2.935146
C -0.061915  0.391957  1.882705
C -1.408028  0.443708  1.163995
O -1.225935  1.282044  0.04333 
C -2.086397  1.297798 -1.076704
C -1.330295  1.972652 -2.228418
O -0.436232  1.103441 -2.888828
C  0.729901  0.715133 -2.180782
C  0.625974 -0.756694 -1.767991
O  1.692709 -1.006913 -0.871083
C  1.781284 -2.340188 -0.418904
H 1.352914 0.133134 4.141516
H  0.737528 -1.517274  4.43542 
H  1.773445 -1.190938  3.017783
H 0.72094  0.078823 1.17546 
H 0.198401 1.388979 2.271272
H -2.185426  0.840203  1.835868
H -1.699342 -0.573989  0.859181
H -3.001913  1.871263 -0.854828
H -2.378406  0.277141 -1.368803
H -2.052787  2.294999 -2.986985
H -0.802636  2.85613  -1.83871 
H  1.592171  0.849153 -2.847156
H  0.879669  1.333382 -1.287293
H -0.343372 -0.942825 -1.281971
H  0.696696 -1.406885 -2.65381 
H  1.961285 -3.033243 -1.252606
H  2.623036 -2.386346  0.274974
H  0.864964 -2.646797  0.104527
