30

C  1.220292 -0.665633  2.881808
O  0.042704 -0.510167  2.121508
C -0.658885  0.694632  2.36146 
C -1.748308  0.828301  1.300623
O -1.142569  1.311174  0.116178
C -1.954155  1.268986 -1.044327
C -1.13263   1.827301 -2.21384 
O -0.318815  0.858477 -2.830672
C  0.866312  0.468356 -2.156582
C  0.664609 -0.835678 -1.375076
O  1.949206 -1.422342 -1.241298
C  1.952942 -2.668643 -0.586137
H  1.005652 -0.653017  3.959867
H  1.646747 -1.634034  2.613944
H 1.948439 0.125409 2.655628
H 0.01983  1.558814 2.294339
H -1.115312  0.682618  3.364803
H -2.525346  1.527802  1.649607
H -2.211549 -0.154722  1.126545
H -2.856019  1.88683  -0.902232
H -2.267203  0.237107 -1.263964
H -1.82038   2.183167 -2.990263
H -0.532068  2.676627 -1.853741
H  1.626021  0.290423 -2.928139
H  1.221401  1.266887 -1.491192
H  0.223831 -0.647464 -0.38672 
H -0.008209 -1.497913 -1.943027
H  1.363912 -3.414698 -1.139148
H  2.991988 -3.000789 -0.532428
H  1.547574 -2.587811  0.432495
