30

C  0.58553  -0.684115  4.09916 
O -0.480919 -0.386278  3.225897
C -0.1081    0.311365  2.054597
C -1.386823  0.515733  1.242293
O -0.992383  1.170479  0.044567
C -1.98358   1.249263 -0.965075
C -1.354747  1.92837  -2.187938
O -0.559088  1.05495  -2.956444
C  0.701898  0.686214 -2.422714
C  0.665018 -0.756971 -1.912418
O  1.977986 -1.061543 -1.479371
C  2.125366 -2.334823 -0.894379
H 1.078158 0.231326 4.455744
H  0.15986  -1.218106  4.950878
H  1.335639 -1.321952  3.61057 
H  0.619671 -0.267326  1.464422
H 0.339875 1.287071 2.300226
H -2.063869  1.079045  1.769183
H -1.827914 -0.468406  1.014598
H -2.841646  1.84684  -0.616954
H -2.342523  0.244949 -1.237046
H -2.156075  2.272074 -2.852388
H -0.771134  2.799023 -1.852377
H  1.441366  0.758682 -3.230786
H  1.003225  1.358518 -1.609355
H -0.049971 -0.85227  -1.082706
H  0.349217 -1.432911 -2.722758
H  1.861484 -3.134582 -1.600946
H  3.175217 -2.437485 -0.612354
H  1.49927  -2.437134  0.003894
