30

C  0.573335 -0.665235  4.124119
O -0.481335 -0.383468  3.23075 
C -0.097111  0.29956   2.05738 
C -1.369338  0.494662  1.234606
O -0.984035  1.158731  0.045992
C -1.978097  1.244233 -0.960803
C -1.352306  1.930007 -2.181322
O -0.558774  1.060592 -2.956565
C  0.7029    0.687668 -2.427319
C  0.665917 -0.759024 -1.927045
O  1.977729 -1.065182 -1.491749
C  2.125213 -2.343546 -0.9179  
H 1.059472 0.257051 4.471856
H  0.136116 -1.18515   4.978664
H  1.330989 -1.310137  3.657342
H  0.637638 -0.25653   1.454683
H 0.340778 1.281373 2.300386
H -2.100276  1.091705  1.801345
H -1.817304 -0.485581  1.01015 
H -2.834123  1.840397 -0.605516
H -2.338742  0.2419   -1.237285
H -2.155211  2.277535 -2.841846
H -0.767633  2.798642 -1.842409
H  1.441304  0.765605 -3.235853
H  1.005662  1.354011 -1.609616
H -0.051766 -0.8607   -1.100372
H  0.353452 -1.429788 -2.742956
H  1.866066 -3.137223 -1.633018
H  3.174048 -2.446657 -0.632305
H  1.495441 -2.455449 -0.023373
