30

C -0.971942  0.482314  5.667588
O -1.252121e+00  3.899000e-03  4.371048e+00
C -0.769419  0.817909  3.321423
C -1.178856  0.138189  2.018183
O -0.685456  0.945686  0.966113
C -0.975606  0.478904 -0.337126
C -0.385517  1.509663 -1.305606
O -0.569449  1.091124 -2.644526
C  0.553692  0.614504 -3.351751
C  0.899793 -0.8327   -2.980191
O  1.92287  -1.233087 -3.870009
C  2.372954 -2.558638 -3.699868
H -1.42723   1.468174  5.837288
H -1.398401 -0.23595   6.370414
H 0.110789 0.558347 5.840751
H 0.327259 0.911414 3.364795
H -1.206957  1.827549  3.369552
H -2.275397  0.053017  1.96843 
H -0.747791 -0.874106  1.97297 
H -2.061417  0.391797 -0.49487 
H -0.52165  -0.510245 -0.507092
H -0.915636  2.462409 -1.178587
H  0.67681   1.666619 -1.074088
H  0.288651  0.650129 -4.414211
H  1.431164  1.257527 -3.186576
H  1.246411 -0.894311 -1.936219
H  0.007496 -1.469273 -3.089394
H  1.559567 -3.280629 -3.85818 
H  3.1531   -2.727273 -4.444604
H  2.792297 -2.712963 -2.69564 
