30

C  0.595567 -0.688076  4.094733
O -0.467213 -0.392134  3.217259
C -0.081065  0.306374  2.039034
C -1.363847  0.499005  1.226892
O -0.986416  1.171591  0.040324
C -1.980514  1.249976 -0.967039
C -1.354504  1.928776 -2.191315
O -0.557251  1.055633 -2.958747
C  0.702093  0.685829 -2.42183 
C  0.663269 -0.759263 -1.916958
O  1.969797 -1.059664 -1.462231
C  2.115555 -2.339586 -0.891343
H 1.084785 0.228319 4.454295
H  0.166531 -1.222437  4.944692
H  1.350191 -1.325254  3.611998
H  0.574742 -0.196867  1.524518
H 0.327771 1.297398 2.301868
H -2.097182  1.087037  1.799044
H -1.804221 -0.483883  0.998292
H -2.837419  1.847128 -0.615601
H -2.339769  0.245586 -1.237778
H -2.156907  2.269577 -2.855898
H -0.772475  2.801179 -1.857593
H  1.444855  0.761885 -3.226548
H  0.999881  1.354931 -1.604602
H -0.06557  -0.860553 -1.099993
H  0.364304 -1.434001 -2.73462 
H  1.87295  -3.131628 -1.614004
H  3.160179 -2.437669 -0.589049
H  1.471893 -2.45921  -0.007782
