30

C  1.024018 -0.758377  3.659154
O -0.230893 -0.588502  3.044154
C -0.202714  0.288904  1.940205
C -1.489894  0.431119  1.136258
O -1.140815  1.274409  0.056723
C -2.040286  1.310814 -1.03709 
C -1.315055  1.978878 -2.21261 
O -0.434776  1.105874 -2.885916
C  0.743772  0.717471 -2.197615
C  0.643298 -0.751795 -1.773848
O  1.708035 -0.992519 -0.872257
C  1.814995 -2.327396 -0.429404
H 1.414529 0.194768 4.043372
H  0.879215 -1.449277  4.491889
H  1.757934 -1.183492  2.959378
H  0.578453 -0.037977  1.230591
H 0.083766 1.301157 2.279908
H -2.295384  0.87719   1.740997
H -1.831872 -0.550963  0.77253 
H -2.938756  1.89468  -0.778972
H -2.352877  0.294644 -1.320204
H -2.056105  2.292936 -2.956553
H -0.780454  2.867146 -1.843495
H  1.593102  0.845214 -2.88149 
H  0.912906  1.340246 -1.311008
H -0.326719 -0.937111 -1.288842
H  0.717791 -1.408631 -2.654538
H  2.016059 -3.01084  -1.26632 
H  2.649929 -2.36422   0.273222
H  0.898808 -2.654346  0.081801
