30

C 0.436563 0.156919 4.378589
O -0.598435  0.21506   3.423131
C -0.24389  -0.252728  2.13622 
C -1.430536  0.006016  1.200309
O -0.971702  0.841054  0.151318
C -1.924489  1.140183 -0.853738
C -1.243792  2.039834 -1.892224
O -0.430857  1.323887 -2.794208
C  0.806324  0.833658 -2.305122
C  0.734086 -0.680867 -2.090585
O  2.04041  -1.097709 -1.738389
C  2.167893 -2.474772 -1.470709
H 1.297229 0.768309 4.073186
H 0.029733 0.549973 5.312231
H  0.77619  -0.876258  4.539407
H -0.00464  -1.328291  2.173049
H 0.640575 0.278415 1.752465
H -2.235359  0.5024    1.763501
H -1.82313  -0.938268  0.791494
H -2.78648   1.671612 -0.41904 
H -2.286462  0.218522 -1.334792
H -2.015982  2.525497 -2.500163
H -0.662426  2.813524 -1.368337
H  1.572733  1.046897 -3.061579
H  1.089953  1.329092 -1.367862
H  0.019587 -0.924132 -1.290862
H  0.399314 -1.172392 -3.017772
H  1.899879 -3.080829 -2.347916
H  3.214216 -2.655587 -1.216223
H  1.533504 -2.77902  -0.625359
