30

C  0.497127 -0.2208    4.327187
O -0.553484 -0.047082  3.402858
C -0.15774  -0.070099  2.046861
C -1.402206  0.20718   1.19866 
O -0.984546  0.987638  0.092897
C -1.959133  1.197435 -0.914254
C -1.303478  2.005385 -2.040601
O -0.502358  1.216514 -2.890825
C  0.751274  0.786284 -2.387406
C  0.702983 -0.701521 -2.028073
O  2.016745 -1.06238  -1.643192
C  2.152029 -2.383862 -1.174768
H 1.249098 0.574937 4.23168 
H  0.053884 -0.178892  5.323902
H  0.992096 -1.193011  4.192413
H  0.278107 -1.049084  1.786613
H 0.600928 0.698954 1.833227
H -2.135954  0.760558  1.805409
H -1.867655 -0.730504  0.859184
H -2.814618  1.762005 -0.509503
H -2.326195  0.236832 -1.306701
H -2.090177  2.431374 -2.674157
H -0.717874  2.825476 -1.598358
H  1.497878  0.935561 -3.178168
H  1.049772  1.370273 -1.507415
H -0.004317 -0.875663 -1.204546
H  0.371825 -1.286688 -2.900532
H  1.865616 -3.114708 -1.944411
H  3.203839 -2.526376 -0.918603
H  1.536544 -2.555737 -0.279358
