30

C  0.592312 -0.675957  4.102522
O -0.474994 -0.393082  3.225512
C -0.106367  0.305721  2.053992
C -1.3767    0.497538  1.230566
O -0.989462  1.163244  0.043537
C -1.981291  1.248866 -0.965458
C -1.351194  1.931627 -2.185463
O -0.556723  1.059602 -2.956857
C  0.70337   0.68682  -2.423773
C  0.664514 -0.758746 -1.920449
O  1.972762 -1.060997 -1.471961
C  2.117525 -2.337609 -0.893474
H 1.073285 0.246173 4.457813
H  0.170417 -1.212377  4.954578
H  1.351183 -1.306465  3.617932
H  0.629288 -0.267633  1.467615
H 0.333015 1.285486 2.299012
H -2.109923  1.093103  1.796043
H -1.822774 -0.483138  1.004197
H -2.83737   1.846541 -0.613012
H -2.342515  0.246556 -1.241384
H -2.151512  2.279672 -2.848781
H -0.765725  2.799648 -1.846251
H  1.44374   0.762972 -3.230705
H  1.004521  1.354443 -1.606515
H -0.060827 -0.859668 -1.100395
H  0.3612   -1.432397 -2.737434
H  1.866841 -3.133631 -1.608998
H  3.163835 -2.437719 -0.597729
H  1.47958  -2.448593 -0.004659
