30

C -0.387082 -0.365941  4.165139
O  0.649428 -0.543595  3.22457 
C 0.636324 0.216642 2.033436
C -0.757835  0.504879  1.470495
O -0.537417  1.119337  0.213829
C -1.696808  1.320001 -0.577643
C -1.263686  1.984412 -1.890339
O -0.740338  1.069766 -2.824954
C  0.57127   0.582286 -2.594518
C  0.529472 -0.858253 -2.076921
O  1.873763 -1.295931 -2.014841
C  2.057463 -2.560138 -1.41976 
H -1.346254 -0.757711  3.800998
H -0.09379  -0.931243  5.053034
H -0.514723  0.689329  4.44498 
H  1.182621 -0.378256  1.289531
H 1.192336 1.15831  2.169214
H -1.330034  1.177562  2.128502
H -1.323237 -0.432664  1.348516
H -2.408789  1.977331 -0.052854
H -2.193554  0.360871 -0.788374
H -2.144327  2.433298 -2.364659
H -0.53559   2.778497 -1.665764
H  1.10482   0.597742 -3.553567
H  1.112332  1.217031 -1.880918
H  0.061675 -0.89664  -1.082708
H -0.060387 -1.485925 -2.763651
H  1.531486 -3.347513 -1.978247
H  3.129568 -2.766158 -1.432913
H  1.701302 -2.567325 -0.379593
