30

C  0.579131 -0.674446  4.111166
O -0.483493 -0.385312  3.230261
C -0.10879   0.308437  2.06025 
C -1.376608  0.503977  1.235336
O -0.987711  1.162418  0.044813
C -1.980625  1.246891 -0.963232
C -1.352853  1.928822 -2.184904
O -0.559738  1.056618 -2.957328
C  0.702477  0.685977 -2.42774 
C  0.666519 -0.75852  -1.921128
O  1.97956  -1.062929 -1.488336
C  2.127857 -2.337378 -0.906091
H 1.065726 0.24471  4.466288
H  0.150935 -1.206562  4.962743
H  1.334562 -1.311023  3.62922 
H  0.641991 -0.28872   1.460081
H 0.343414 1.282882 2.300011
H -2.105328  1.106555  1.799424
H -1.829016 -0.474887  1.01419 
H -2.836115  1.845209 -0.610268
H -2.342446  0.244386 -1.23751 
H -2.154906  2.275568 -2.846896
H -0.767542  2.797693 -1.847695
H  1.43992   0.760528 -3.237472
H  1.006083  1.355936 -1.61329 
H -0.048777 -0.856391 -1.091966
H  0.351623 -1.432793 -2.733212
H  1.864811 -3.135809 -1.614467
H  3.177724 -2.439751 -0.624033
H  1.501624 -2.442087 -0.008194
