30

C  0.630841 -0.674241  4.200624
O -0.539546 -0.377571  3.23372 
C -0.134129  0.294725  2.066663
C -1.395865  0.497299  1.229429
O -0.9914    1.147618  0.03907 
C -1.978568  1.24178  -0.973566
C -1.34407   1.93334  -2.186253
O -0.551302  1.066068 -2.964646
C  0.710076  0.690028 -2.437386
C  0.670421 -0.754522 -1.931093
O  1.990901 -1.074639 -1.533004
C  2.136402 -2.34572  -0.943082
H 1.077101 0.272432 4.502765
H  0.172949 -1.187856  5.040656
H  1.351106 -1.30872   3.685353
H  0.594575 -0.298249  1.490351
H 0.318347 1.272439 2.297393
H -2.124435  1.108128  1.784294
H -1.85375  -0.478969  1.008343
H -2.835162  1.838298 -0.620189
H -2.340364  0.242101 -1.258194
H -2.142535  2.289544 -2.847607
H -0.756819  2.796742 -1.838514
H  1.445771  0.761028 -3.249017
H  1.018296  1.359423 -1.624086
H -0.023721 -0.845886 -1.083542
H  0.327098 -1.42367  -2.735864
H  1.841288 -3.14657  -1.635952
H  3.192182 -2.461831 -0.689766
H  1.534319 -2.432549 -0.026881
