30

C  0.48095  -0.639404  4.221026
O -0.554352 -0.373694  3.301135
C -0.145976  0.304877  2.130893
C -1.394469  0.489794  1.273041
O -0.979641  1.144908  0.089104
C -1.946647  1.207596 -0.946128
C -1.308362  1.929225 -2.139999
O -0.584311  1.062903 -2.984275
C  0.7047    0.663017 -2.554012
C  0.673182 -0.74124  -1.942785
O  2.023298 -1.110462 -1.729094
C  2.199078 -2.333791 -1.052786
H 0.948343 0.289605 4.576457
H  0.028737 -1.160582  5.066945
H  1.257033 -1.277873  3.775806
H  0.601627 -0.282481  1.573897
H 0.292451 1.285567 2.37337 
H -2.140757  1.090703  1.815183
H -1.835172 -0.492902  1.045421
H -2.831079  1.770592 -0.606665
H -2.266767  0.198029 -1.243875
H -2.10339   2.360037 -2.760231
H -0.668261  2.742155 -1.766327
H  1.353762  0.645294 -3.438593
H  1.119436  1.375134 -1.827777
H  0.11899  -0.739112 -0.993722
H  0.177229 -1.439056 -2.63589 
H  1.758353 -3.170255 -1.613614
H  3.274797 -2.494047 -0.956065
H  1.747227 -2.304538 -0.050417
