30

C  0.573782 -0.661763  4.133391
O -0.489664 -0.378494  3.239689
C -0.107486  0.304561  2.064184
C -1.376264  0.504049  1.239795
O -0.984931  1.157857  0.047335
C -1.97836   1.24425  -0.960045
C -1.351108  1.927487 -2.18121 
O -0.559956  1.055531 -2.955904
C  0.703559  0.684745 -2.429751
C  0.668134 -0.75833  -1.919015
O  1.98547  -1.066987 -1.502428
C  2.134447 -2.337152 -0.911155
H 1.078893 0.270561 4.408071
H  0.123202 -1.251659  4.929682
H  1.324463 -1.299492  3.636878
H  0.621407 -0.283788  1.484094
H 0.344096 1.280885 2.301168
H -2.102437  1.11084   1.802389
H -1.832481 -0.473626  1.021012
H -2.833324  1.842508 -0.605742
H -2.340829  0.24228  -1.235478
H -2.153443  2.276418 -2.841724
H -0.764268  2.795005 -1.843189
H  1.43807   0.755893 -3.242437
H  1.010933  1.356893 -1.618471
H -0.036644 -0.851485 -1.080376
H  0.340151 -1.433142 -2.725446
H  1.856296 -3.140155 -1.608505
H  3.187649 -2.4436   -0.643393
H  1.520653 -2.430092 -0.003397
