30

C  0.8823   -0.837849  3.719997
O -0.259954 -0.548691  2.946292
C -0.047331  0.391692  1.911136
C -1.368435  0.510663  1.146356
O -1.094117  1.335658  0.0381  
C -2.037277  1.324535 -1.019838
C -1.363392  1.948049 -2.249126
O -0.507032  1.051929 -2.923433
C  0.699085  0.691883 -2.268237
C  0.622151 -0.763001 -1.793005
O  1.718726 -0.969933 -0.921579
C  1.847046 -2.289597 -0.440364
H 1.264315 0.061991 4.222484
H  0.581268 -1.568845  4.473073
H  1.685329 -1.265202  3.102608
H 0.745993 0.054897 1.226436
H 0.24016  1.37253  2.321638
H -2.147323  0.84751   1.845668
H -1.664573 -0.497182  0.807532
H -2.928254  1.913919 -0.749755
H -2.354031  0.296041 -1.248778
H -2.135046  2.230849 -2.974259
H -0.818101  2.851524 -1.936913
H  1.521258  0.800493 -2.987753
H  0.898403  1.3443   -1.409698
H -0.329615 -0.936673 -1.269108
H  0.669774 -1.448291 -2.653657
H  2.016459 -2.999451 -1.262162
H  2.709427 -2.302538  0.229152
H  0.952796 -2.601212  0.117212
