30

C  1.375964 -0.196711  2.926248
O  0.381235 -0.084943  1.935601
C -0.90089   0.256221  2.426612
C -1.831843  0.586799  1.247275
O -1.09236   1.183973  0.205629
C -1.815806  1.426766 -0.986547
C -0.823302  1.904326 -2.059835
O -0.428903  0.857977 -2.922481
C  0.773856  0.174288 -2.63032 
C  0.643547 -0.767258 -1.42811 
O  1.733008 -1.671663 -1.514851
C  1.807074 -2.58349  -0.443636
H  1.148595 -1.004605  3.636959
H  2.311086 -0.425271  2.411775
H 1.491639 0.742817 3.485037
H -0.830786  1.114086  3.113119
H -1.314179 -0.613765  2.964262
H -2.633837  1.256442  1.599562
H -2.302669 -0.342346  0.882467
H -2.583021  2.199317 -0.813804
H -2.316969  0.510032 -1.332815
H -1.316714  2.656768 -2.688591
H  0.044883  2.368733 -1.571846
H  1.002243 -0.424125 -3.519449
H  1.597926  0.885087 -2.464845
H  0.682744 -0.210759 -0.483067
H -0.316099 -1.305797 -1.481969
H  0.923372 -3.237277 -0.411578
H  2.698972 -3.193949 -0.600811
H  1.891242 -2.061673  0.520027
