30

C  0.586865 -0.677286  4.104917
O -0.476616 -0.391529  3.224091
C -0.102865  0.306776  2.054027
C -1.373527  0.499054  1.231337
O -0.987983  1.164119  0.043347
C -1.981028  1.248597 -0.964553
C -1.352654  1.930596 -2.185856
O -0.55889   1.058217 -2.957563
C  0.702007  0.686263 -2.425856
C  0.66422  -0.758818 -1.921073
O  1.973435 -1.060584 -1.475058
C  2.119437 -2.33657  -0.895512
H 1.068719 0.243569 4.462277
H  0.160622 -1.213019  4.955243
H  1.345975 -1.309404  3.622832
H  0.635071 -0.265231  1.469027
H 0.340802 1.28488  2.298366
H -2.105772  1.094971  1.797657
H -1.820025 -0.481676  1.006198
H -2.836891  1.846258 -0.611572
H -2.342249  0.245932 -1.239225
H -2.15386   2.277922 -2.848472
H -0.767002  2.799042 -1.848011
H  1.441237  0.761737 -3.233908
H  1.004148  1.354782 -1.609697
H -0.059384 -0.859036 -1.099398
H  0.359231 -1.433234 -2.736802
H  1.867219 -3.133365 -1.609636
H  3.166376 -2.436369 -0.601896
H  1.483393 -2.446593 -0.005212
