30

C  0.956129 -0.808828  3.674286
O -0.216212 -0.548234  2.936183
C -0.056554  0.392413  1.891643
C -1.395098  0.46711   1.160845
O -1.190669  1.3059    0.043206
C -2.074395  1.305083 -1.059974
C -1.343213  1.962572 -2.237601
O -0.458231  1.084962 -2.899232
C  0.71965   0.708283 -2.204139
C  0.625048 -0.758518 -1.771366
O  1.699947 -0.993654 -0.88016 
C  1.803164 -2.323189 -0.420225
H 1.333369 0.10115  4.161867
H  0.695412 -1.543657  4.438574
H  1.74873  -1.22029   3.033122
H 0.728164 0.07392  1.188717
H 0.213714 1.38304  2.289656
H -2.173124  0.87307   1.826089
H -1.698234 -0.544679  0.848819
H -2.985671  1.880653 -0.827192
H -2.370211  0.279588 -1.329521
H -2.080849  2.268923 -2.988161
H -0.811738  2.854707 -1.87358 
H  1.571284  0.835731 -2.885317
H  0.881723  1.337977 -1.320948
H -0.339604 -0.941987 -1.275058
H  0.690831 -1.419901 -2.649265
H  1.983607 -3.019934 -1.25077 
H  2.64992 -2.35768  0.26822
H  0.893118 -2.634532  0.111302
