30

C 1.079546 0.186022 2.231101
O -0.186657  0.327843  2.843724
C -1.147536 -0.633     2.508226
C -1.912583 -0.371337  1.179599
O -1.25473   0.603095  0.395013
C -1.982258  1.023687 -0.745178
C -1.167968  2.102198 -1.470168
O -0.186555  1.570426 -2.333221
C  1.003832  1.090129 -1.736504
C  0.998959 -0.439795 -1.656601
O  2.149942 -0.803919 -0.915025
C  2.321299 -2.191503 -0.736423
H 1.034617 0.363035 1.152128
H 1.732992 0.93124  2.689569
H  1.495648 -0.816001  2.408852
H -1.884426 -0.624579  3.322392
H -0.708719 -1.645155  2.47954 
H -2.932824 -0.02396   1.414744
H -2.004641 -1.317216  0.619542
H -2.953018  1.447277 -0.439158
H -2.170025  0.177996 -1.424697
H -1.844916  2.68544  -2.105471
H -0.71392   2.771093 -0.724235
H  1.844933  1.416661 -2.361413
H  1.136054  1.506851 -0.729429
H  0.087504 -0.793356 -1.154552
H  1.02907  -0.87341  -2.668334
H  2.429818 -2.708543 -1.700216
H  3.232852 -2.32828  -0.151182
H  1.473721 -2.63294  -0.192605
