30

C -1.212722  0.615517  5.742292
O -1.253572  0.032918  4.458832
C -0.871758  0.89338   3.404665
C -0.991712  0.085025  2.116166
O -0.598258  0.941552  1.060838
C -0.656038  0.369299 -0.231332
C -0.241172  1.474037 -1.210134
O -0.508183  1.094132 -2.545091
C  0.563058  0.626149 -3.333962
C  0.863716 -0.856299 -3.080761
O  1.822137 -1.233768 -4.048801
C  2.213795 -2.587655 -4.001082
H -1.893933  1.475114  5.813284
H -1.529108 -0.152824  6.450315
H -0.196805  0.947329  5.998954
H 0.165949 1.240024 3.53229 
H -1.529688  1.77527   3.354876
H -2.030634 -0.253791  1.981778
H -0.339795 -0.800871  2.168542
H -1.677181  0.033198 -0.46967 
H  0.019943 -0.497233 -0.303759
H -0.843308  2.366259 -0.996624
H  0.818914  1.727172 -1.068752
H  0.255187  0.74604  -4.378767
H  1.472482  1.222082 -3.165219
H  1.259168 -1.006238 -2.063298
H -0.060208 -1.44679  -3.185484
H  1.358936 -3.257427 -4.169925
H  2.947615 -2.734199 -4.795873
H  2.673185 -2.837404 -3.034275
