30

C  0.558641 -0.665307  4.140259
O -0.48949  -0.406519  3.231555
C -0.107297  0.284381  2.059767
C -1.37614   0.483148  1.235244
O -0.98655   1.147282  0.048033
C -1.979655  1.237212 -0.959441
C -1.354326  1.932146 -2.174988
O -0.55983   1.069083 -2.95615 
C  0.70466   0.698296 -2.432315
C  0.673821 -0.748996 -1.933347
O  1.991933 -1.056596 -1.518543
C  2.145113 -2.331591 -0.938784
H 1.194029 0.219504 4.280097
H  0.100416 -0.940385  5.092126
H  1.191676 -1.493726  3.790515
H  0.624635 -0.296409  1.476081
H 0.338966 1.260866 2.304458
H -2.105944  1.082282  1.801357
H -1.827179 -0.49522   1.009048
H -2.837231  1.829329 -0.601192
H -2.337875  0.235884 -1.242611
H -2.157646  2.283372 -2.833079
H -0.770712  2.799082 -1.829957
H  1.439331  0.77849  -3.244007
H  1.00936   1.364895 -1.615467
H -0.031108 -0.85137  -1.095893
H  0.348531 -1.418292 -2.745447
H  1.87091  -3.129177 -1.643865
H  3.198397 -2.43642  -0.670726
H  1.530574 -2.435244 -0.032709
