30

C  0.509006 -0.659965  4.149473
O -0.527383 -0.353572  3.243621
C -0.105931  0.296485  2.061663
C -1.356645  0.524926  1.217303
O -0.931173  1.153143  0.025198
C -1.925146  1.283962 -1.0013  
C -1.397527  1.886136 -2.089578
O -0.604022  1.032381 -2.921368
C  0.679021  0.670399 -2.442258
C  0.674277 -0.771295 -1.9252  
O  2.01108  -1.073912 -1.570034
C  2.190478 -2.336506 -0.971628
H 1.02397  0.249105 4.490465
H  0.046942 -1.153955  5.006336
H  1.247983 -1.336408  3.697221
H  0.609875 -0.326405  1.502004
H 0.375253 1.260555 2.289178
H -2.07153   1.158999  1.764731
H -1.83967  -0.441285  1.003709
H -2.768639  1.872236 -0.589354
H -2.329877  0.279172 -1.22807 
H -2.19224   2.244555 -2.763735
H -0.792977  2.77249  -1.816997
H  1.380534  0.741897 -3.283785
H  1.01592   1.348222 -1.647378
H  0.00996  -0.864904 -1.054201
H  0.311462 -1.450022 -2.713282
H  1.879346 -3.148291 -1.644527
H  3.255667 -2.439288 -0.754506
H  1.621994 -2.418856 -0.033681
