30

C  0.60317  -0.666153  4.069998
O -0.503279 -0.406088  3.23163 
C -0.124367  0.295297  2.061908
C -1.390288  0.496142  1.233061
O -0.995445  1.161539  0.048201
C -1.981807  1.249427 -0.965987
C -1.34509   1.933727 -2.181685
O -0.546553  1.062774 -2.950044
C  0.710389  0.688466 -2.410585
C  0.667911 -0.758219 -1.91068 
O  1.975429 -1.065084 -1.463072
C  2.116701 -2.343302 -0.887325
H 1.079814 0.266955 4.400252
H  0.227285 -1.205457  4.941943
H  1.352619 -1.285257  3.557792
H  0.61057  -0.281663  1.479   
H 0.318896 1.271098 2.313696
H -2.122258  1.094946  1.796709
H -1.84087  -0.4817    1.003525
H -2.839102  1.847526 -0.617111
H -2.342579  0.247919 -1.245241
H -2.142085  2.282149 -2.848855
H -0.761897  2.801645 -1.838411
H  1.45544   0.765697 -3.213065
H  1.007187  1.354448 -1.590403
H -0.057514 -0.859489 -1.090769
H  0.362727 -1.428854 -2.729439
H  1.863099 -3.137102 -1.604276
H  3.162892 -2.447224 -0.592469
H  1.479017e+00 -2.454164e+00  1.724000e-03
