30

C  0.941828 -0.819975  3.681387
O -0.225023 -0.549778  2.93806 
C -0.053815  0.39215   1.896507
C -1.388162  0.478337  1.159278
O -1.171859  1.316392  0.042682
C -2.0678    1.308402 -1.051285
C -1.349744  1.957523 -2.241601
O -0.469643  1.075921 -2.904483
C  0.714359  0.704772 -2.216687
C  0.624541 -0.759366 -1.77381 
O  1.703904 -0.987013 -0.886067
C  1.814759 -2.314662 -0.422534
H 1.322778 0.086325 4.172915
H  0.672335 -1.554743  4.442681
H  1.73482  -1.235351  3.043225
H 0.731769 0.069616 1.196313
H 0.221909 1.379797 2.298164
H -2.166416  0.889887  1.820696
H -1.697473 -0.530529  0.844298
H -2.976483  1.885297 -0.812141
H -2.365887  0.280923 -1.310047
H -2.095195  2.256282 -2.987478
H -0.816336  2.85363  -1.890353
H  1.560185  0.828635 -2.905715
H  0.883196  1.340189 -1.338928
H -0.337496 -0.941321 -1.271891
H  0.6874   -1.426387 -2.64766 
H  1.99496  -3.013138 -1.251689
H  2.664379 -2.343384  0.262638
H  0.908219 -2.62843   0.113544
