30

C 1.077496 0.172465 2.235793
O -0.187806  0.350248  2.840705
C -1.162044 -0.604839  2.527425
C -1.909178 -0.373509  1.182332
O -1.254151  0.601564  0.396341
C -1.980327  1.016214 -0.746856
C -1.170802  2.10051  -1.468612
O -0.183348  1.57571  -2.328966
C  1.004127  1.093815 -1.727542
C  1.00246  -0.436748 -1.66208 
O  2.153791 -0.805687 -0.923475
C  2.329834 -2.194675 -0.761095
H 1.036282 0.313226 1.151316
H 1.739228 0.924838 2.669943
H  1.481074 -0.827992  2.448294
H -1.904747 -0.558457  3.33471 
H -0.737363 -1.623384  2.533139
H -2.938953 -0.041152  1.396202
H -1.975928 -1.327443  0.632257
H -2.955323  1.432827 -0.444764
H -2.159399  0.16907  -1.426916
H -1.849261  2.680029 -2.105655
H -0.723322  2.77154  -0.720612
H  1.849022  1.427996 -2.343235
H  1.127571  1.501773 -0.715844
H  0.091396 -0.797052 -1.163991
H  1.033984 -0.860366 -2.677993
H  2.441829 -2.699777 -1.730797
H  3.240907 -2.335144 -0.175975
H  1.482958 -2.645602 -0.224031
