30

C  0.571355 -0.667985  4.109388
O -0.49161  -0.384648  3.227571
C -0.116729  0.308228  2.051818
C -1.362532  0.497963  1.241114
O -0.978318  1.159726  0.048437
C -1.974854  1.246152 -0.955492
C -1.351097  1.928693 -2.178893
O -0.561472  1.056458 -2.954926
C  0.702423  0.684501 -2.430353
C  0.667175 -0.760262 -1.924393
O  1.981285 -1.065687 -1.495577
C  2.130358 -2.340291 -0.913878
H 1.055124 0.253688 4.462138
H  0.144319 -1.198666  4.962507
H  1.329213 -1.303993  3.630382
H  0.622601 -0.272238  1.475781
H 0.332098 1.284076 2.298529
H -2.098962  1.097566  1.799731
H -1.816668 -0.479771  1.014225
H -2.828524  1.844831 -0.59866 
H -2.338656  0.244274 -1.229572
H -2.155272  2.276636 -2.837667
H -0.763825  2.796796 -1.843143
H  1.436887  0.758936 -3.242787
H  1.009636  1.353711 -1.616633
H -0.045715 -0.858151 -1.093151
H  0.349475 -1.433976 -2.735839
H  1.864624 -3.138452 -1.621544
H  3.180977 -2.443476 -0.634945
H  1.506691 -2.44464  -0.014147
