30

C  1.053986 -0.998407  3.456283
O -0.039811 -0.79856   2.588594
C -0.023468  0.437337  1.89625 
C -1.337271  0.530542  1.117721
O -1.103689  1.392634  0.020052
C -2.035123  1.339739 -1.046348
C -1.355902  1.927816 -2.290887
O -0.502922  1.010504 -2.940458
C  0.699701  0.660173 -2.272887
C  0.606091 -0.773904 -1.740184
O  1.677645 -0.950353 -0.832881
C  1.665061 -2.183732 -0.146633
H  1.080557 -0.235407  4.246903
H  0.924522 -1.98238   3.911303
H  2.00801  -0.97531   2.911377
H 0.817533 0.47366  1.186509
H 0.07534  1.278278 2.59967 
H -2.149349  0.913285  1.754818
H -1.614943 -0.476235  0.769798
H -2.932759  1.931259 -0.802987
H -2.343935  0.303163 -1.245921
H -2.125023  2.195528 -3.024439
H -0.806803  2.836451 -2.001132
H  1.521435  0.733597 -2.997176
H  0.906905  1.342454 -1.439489
H -0.359597 -0.919663 -1.23418 
H  0.669437 -1.496997 -2.568581
H  1.726928 -3.030382 -0.844761
H  2.540086 -2.193812  0.50654 
H  0.757369 -2.291278  0.463146
