30

C  1.279517 -0.540758  2.854264
O  0.102227 -0.451651  2.083401
C -0.729123  0.647462  2.399894
C -1.781054  0.785612  1.302784
O -1.138264  1.270664  0.139826
C -1.928554  1.269574 -1.035852
C -1.079083  1.845304 -2.177278
O -0.29798   0.873789 -2.831368
C  0.888996  0.439556 -2.189429
C  0.661066 -0.847312 -1.386926
O  1.924374 -1.486015 -1.292455
C  1.90439  -2.710897 -0.598266
H  1.051361 -0.650239  3.924054
H  1.81799  -1.426075  2.51139 
H 1.914813 0.345    2.715893
H -0.137781  1.575096  2.451883
H -1.227377  0.493175  3.370991
H -2.568208  1.483102  1.632633
H -2.239577 -0.196484  1.108683
H -2.823952  1.896704 -0.893317
H -2.252767  0.248456 -1.287489
H -1.748893  2.25856  -2.94102 
H -0.45011   2.656279 -1.779526
H  1.614815  0.223518 -2.983314
H  1.298339  1.229573 -1.544828
H  0.265175 -0.630508 -0.385862
H -0.058827 -1.486547 -1.922694
H  1.257819 -3.445964 -1.099295
H  2.929243 -3.088039 -0.581487
H  1.551438 -2.580934  0.434728
