30

C 0.436774 0.185379 4.372779
O -0.598649  0.236531  3.417462
C -0.253974 -0.269687  2.142219
C -1.435318 -0.010351  1.199966
O -0.972617  0.829264  0.156334
C -1.922724  1.135593 -0.849047
C -1.239174  2.042363 -1.879433
O -0.42437   1.332597 -2.784615
C  0.811154  0.837807 -2.29593 
C  0.737185 -0.678254 -2.093163
O  2.042628 -1.099121 -1.742478
C  2.169012 -2.478794 -1.488068
H 1.307066 0.774275 4.050884
H 0.038118 0.608875 5.296595
H  0.759377 -0.848905  4.559571
H -0.036968 -1.348678  2.205846
H 0.640742 0.234731 1.746572
H -2.245283  0.481522  1.759643
H -1.82211  -0.954629  0.785464
H -2.785677  1.664239 -0.412867
H -2.283757  0.217408 -1.337431
H -2.009692  2.532714 -2.485726
H -0.658753  2.812002 -1.348585
H  1.579728  1.056139 -3.048733
H  1.092648  1.325952 -1.354222
H  0.021333 -0.927064 -1.296343
H  0.403229 -1.162179 -3.024636
H  1.902677 -3.076084 -2.371779
H  3.214717 -2.662519 -1.233119
H  1.532689 -2.791124 -0.647139
