30

C  0.450444 -0.537694  4.284663
O -0.550006 -0.321656  3.31457 
C -0.086129  0.227047  2.098525
C -1.329884  0.408374  1.216904
O -0.948466  1.088792  0.044872
C -1.957885  1.221872 -0.942783
C -1.343041  1.940786 -2.149518
O -0.575153  1.088077 -2.967562
C  0.700371  0.699337 -2.485526
C  0.673327 -0.753474 -2.002328
O  2.007878 -1.086593 -1.667054
C  2.169433 -2.359653 -1.085752
H 0.945918 0.402576 4.564404
H -0.043366 -0.958648  5.162554
H  1.21097  -1.244484  3.923974
H  0.651393 -0.440668  1.622465
H 0.38646  1.208277 2.258368
H -1.954867  1.020264  1.890603
H -1.813024 -0.552874  1.00216 
H -2.799583  1.816372 -0.553022
H -2.335555  0.234071 -1.246891
H -2.152596  2.321454 -2.783223
H -0.740831  2.789511 -1.7915  
H  1.410709  0.781839 -3.318326
H  1.035656  1.354609 -1.671328
H  0.016049 -0.856035 -1.127148
H  0.291897 -1.406902 -2.802853
H  1.83515  -3.157061 -1.76465 
H  3.234794 -2.485349 -0.882127
H  1.609945 -2.442168 -0.142452
