30

C  1.371787 -0.22741   2.91268 
O  0.325243 -0.228684  1.969148
C -0.890664  0.31532   2.437676
C -1.831687  0.566632  1.254699
O -1.1099    1.192154  0.215621
C -1.827994  1.388253 -0.988921
C -0.846001  1.910505 -2.051208
O -0.390594  0.886594 -2.909682
C  0.816303  0.228722 -2.577273
C  0.646079 -0.775472 -1.431941
O  1.763176 -1.64689  -1.501035
C  1.79343  -2.621596 -0.484262
H  1.132781 -0.858793  3.7805  
H  2.25304  -0.629179  2.409417
H 1.589788 0.790544 3.265344
H -0.696172  1.271118  2.952727
H -1.383576 -0.365423  3.150973
H -2.670553  1.196417  1.593394
H -2.243555 -0.393243  0.899665
H -2.636877  2.12067  -0.832471
H -2.27575   0.444314 -1.334869
H -1.36589   2.638359 -2.687243
H -0.006734  2.415528 -1.55245 
H  1.118688 -0.318044 -3.477642
H  1.603311  0.956737 -2.328268
H  0.616819 -0.267095 -0.459679
H -0.293597 -1.334503 -1.568107
H  0.927884 -3.29672  -0.550209
H  2.710097 -3.19981  -0.619211
H  1.801128 -2.159007  0.512646
