30

C  0.383676 -0.634498  4.285953
O -0.598374 -0.341184  3.317281
C -0.111651  0.304994  2.15836 
C -1.312917  0.526487  1.242522
O -0.828212  1.150814  0.061955
C -1.894004  1.235256 -0.878396
C -1.361598  1.900264 -2.154305
O -0.639813  1.013038 -2.977776
C  0.665843  0.652191 -2.558753
C  0.677957 -0.771721 -1.995189
O  2.03592  -1.095207 -1.759194
C  2.243807 -2.331853 -1.117367
H 0.870941 0.280398 4.651165
H -0.125995 -1.126261  5.116676
H  1.153061 -1.30854   3.883695
H  0.636417 -0.318639  1.643092
H 0.353816 1.271024 2.40927 
H -2.056764  1.164379  1.742809
H -1.779964 -0.441263  1.007518
H -2.71427   1.842356 -0.465171
H -2.278726  0.232242 -1.113232
H -2.211627  2.246773 -2.753753
H -0.744725  2.768043 -1.87564 
H  1.319128  0.688003 -3.440091
H  1.051252  1.352893 -1.806897
H  0.099619 -0.822464 -1.061707
H  0.227165 -1.465093 -2.722786
H  1.850013 -3.166343 -1.714955
H  3.32244  -2.453429 -0.998913
H  1.767594 -2.352657 -0.126151
