30

C  1.01605672 -1.12283553  3.30764501
O -0.01218859 -0.86782604  2.4672006 
C -0.05385653  0.50239066  1.96527539
C -1.35471116  0.70168212  1.15972373
O -1.01069074  1.38355043 -0.06084879
C -2.0519945   1.2842746  -1.07652178
C -1.39243385  1.84812671 -2.34924618
O -0.49858337  1.00355976 -2.99344918
C  0.66336164  0.67056699 -2.26593801
C  0.55623919 -0.75263811 -1.6320941 
O  1.69957468 -0.9618153  -0.81189016
C  1.78711379 -2.16451071 -0.10792808
H  1.1204348  -0.45637594  4.21613505
H  0.95740624 -2.09332457  3.57366746
H  1.89147748 -1.07823555  2.78920748
H 0.76852827 0.67945149 1.31144536
H 0.06361819 1.15193336 2.85287675
H -2.10357989  1.31580952  1.73460318
H -1.87318023 -0.2951822   0.95723942
H -2.94096907  1.94274746 -0.82148432
H -2.20606396  0.10893344 -1.17367319
H -2.2413245   2.01944533 -3.00082129
H -0.93842592  2.85842825 -2.13901144
H  1.51073716  0.64503929 -2.96860034
H  0.83614755  1.36508033 -1.53305517
H -0.33439743 -0.83657255 -1.00419535
H  0.53087266 -1.46695414 -2.43581295
H  1.86933007 -3.1007079  -0.73743287
H  2.75150887 -2.22233322  0.50187846
H  0.99072469 -2.2674548   0.66488743
