30

C  1.37686574 -0.25458244  2.91386796
O 0.42442262 0.06766831 1.91497147
C -0.86118559  0.13733207  2.34259362
C -1.8330547   0.59554409  1.21243434
O -1.04419781  1.20070355  0.19457374
C -1.79888202  1.45550969 -0.98225279
C -0.79942009  1.89459523 -2.1302291 
O -0.52204594  0.81115504 -2.96986053
C  0.66411089  0.11428306 -2.6865319 
C  0.65023734 -0.72975332 -1.39350833
O  1.70007073 -1.67728813 -1.44309135
C  1.83857252 -2.52377504 -0.29352094
H  1.20558326 -1.25341191  3.31755484
H  2.30193632 -0.23481598  2.37805564
H 1.38450799 0.44489392 3.76154263
H -0.94695221  0.80838704  3.23463162
H -1.14638925 -0.90222867  2.66316831
H -2.58567963  1.32050392  1.69129926
H -2.34994221 -0.18387412  0.7544428 
H -2.49153168  2.29808027 -0.94420609
H -2.39019987  0.6481371  -1.41715738
H -1.28157557  2.56717499 -2.87136492
H  0.05011992  2.27548735 -1.50324601
H  0.7584527  -0.46185741 -3.52516783
H  1.53054586  0.74770532 -2.7131921 
H  0.749803   -0.20676978 -0.45200193
H -0.27431096 -1.15473397 -1.31607193
H  0.98870559 -3.13078725 -0.20687546
H  2.78712617 -3.12097275 -0.48391332
H  1.91923623 -1.9210715   0.60709246
