30

C -0.39845923 -1.35725806  4.40282334
O -0.56968992 -0.22092161  3.55608168
C -0.96255995 -0.50619424  2.20642663
C -0.90750925  0.78254571  1.4270809 
O -1.35228984  0.54676474  0.11951736
C -1.30589973  1.69616032 -0.75808431
C -1.80846263  1.20352629 -2.14071998
O -1.1369417   0.1119453  -2.74042449
C  0.2590756   0.27163419 -2.95509574
C  1.04447487 -0.4688261  -1.84546503
O  2.46026732 -0.27305859 -2.14285697
C  3.26538763 -0.99031895 -1.29744747
H  0.38667171 -2.00329005  4.11398441
H -0.20879082 -0.89878793  5.36172496
H -1.38708435 -1.96264474  4.42850367
H -2.0067621  -0.89462396  2.02859343
H -0.24609955 -1.31440192  1.8262663 
H 0.09132297 1.24867083 1.45642136
H -1.5846687   1.52597874  1.86951259
H -0.30693072  2.11813564 -0.85857268
H -2.04103651  2.4811592  -0.44467637
H -2.88550663  0.89182513 -2.0643423 
H -1.78831283  2.16799482 -2.72630809
H  0.49741476 -0.20649672 -3.95794006
H  0.66148908  1.25989842 -2.91687488
H  1.06502759 -0.1127249  -0.81839155
H  0.78039496 -1.46367583 -1.91706044
H  3.17246797 -1.98969054 -1.42458749
H  4.26759747 -0.75325913 -1.5646244 
H  3.22647675 -0.79920859 -0.22811257
