30

C 0.47026171 0.01649481 4.35234859
O -0.54426741  0.13947691  3.37667876
C -0.17706313 -0.25894998  2.04025224
C -1.3495527  -0.00936239  1.14646471
O -0.9402417   0.85992298  0.07144629
C -1.95076978  1.15989495 -0.87937549
C -1.274905    2.02532554 -1.94704028
O -0.45768468  1.32627123 -2.81819907
C  0.78321403  0.82773908 -2.33244574
C  0.68710207 -0.62715868 -2.06231747
O  1.98348232 -1.05819779 -1.66279974
C  2.09450841 -2.43349422 -1.21890022
H 1.21818712 0.77201394 4.22051648
H -0.06490447  0.17208055  5.30211405
H  0.85262394 -0.99668025  4.27554024
H  0.03049597 -1.33919337  1.98598847
H 0.65865615 0.30909974 1.68692381
H -2.08180403  0.45985632  1.78639035
H -1.82571641 -0.84794308  0.6663769 
H -2.74099077  1.81661137 -0.41725626
H -2.37973042  0.23683542 -1.36001241
H -2.06318116  2.50769158 -2.50008692
H -0.79657425  2.8633209  -1.52746258
H  1.47195409  1.06878965 -3.15563657
H  1.05611339  1.37606624 -1.40173356
H -0.00285265 -0.81152247 -1.35381908
H  0.26225874 -1.31504153 -2.90260898
H  1.72625106 -3.13734135 -1.88018241
H  3.24699431 -2.61734869 -0.98696142
H  1.56303508 -2.71737834 -0.29088039
