30

C  1.43074929 -0.11433975  2.92717062
O  0.3817242  -0.21035363  1.99068851
C -0.94544853  0.29172852  2.43040384
C -1.8504211   0.60841682  1.23634926
O -1.10939883  1.14141085  0.20102521
C -1.83561386  1.42534752 -0.95055308
C -0.81778292  1.89117419 -2.08830723
O -0.41215747  0.86453106 -2.88733365
C  0.80133897  0.27856205 -2.55422193
C  0.68253412 -0.81893386 -1.44807667
O  1.74720677 -1.65837366 -1.51389118
C  1.7491597  -2.64120049 -0.51060271
H  1.23795733 -0.79582735  3.78788262
H  2.34313552 -0.35516692  2.41529863
H 1.59705633 0.95182815 3.2420658 
H -0.79430925  1.17090283  3.07708412
H -1.43849997 -0.49843668  3.05154418
H -2.61915611  1.30898738  1.53937556
H -2.26532531 -0.38395935  0.80178825
H -2.47988088  2.31055465 -0.86456454
H -2.38079651  0.5129638  -1.46209383
H -1.31336545  2.64533784 -2.79167757
H  0.01636337  2.3832041  -1.56242471
H  1.17125223 -0.34130023 -3.41416004
H  1.43053061  1.05187242 -2.29066568
H  0.57392845 -0.42934299 -0.48828926
H -0.25892014 -1.35375937 -1.69062516
H  1.00885307 -3.41440679 -0.79127993
H  2.75675676 -3.16838298 -0.54907541
H  1.53166031 -2.11039144  0.5190613 
