30

C -1.80939175  0.534817    5.61889659
O -1.18323472  0.03469619  4.47062192
C -1.06338435  0.94530064  3.41242677
C -0.45750613  0.15773332  2.24541502
O -0.32963371  1.02797378  1.13942295
C 0.35996835 0.48832015 0.02069488
C  0.2866203   1.52026739 -1.04730978
O -0.42747112  1.11430153 -2.21214565
C  0.30966118  0.58885748 -3.30232029
C  0.65564487 -0.88673614 -3.0748138 
O  1.31310042 -1.3099666  -4.27721569
C  1.67949173 -2.72419849 -4.2971881 
H -2.88406925  0.84949754  5.40322854
H -1.78211999 -0.20837949  6.41148937
H -1.37927856  1.46917702  6.03844905
H -0.30848118  1.83932183  3.59631393
H -1.98645821  1.33099865  3.12211829
H -1.07314147 -0.70590299  1.95450267
H  0.58517601 -0.22836208  2.54826799
H -0.31159499 -0.39280799 -0.2281458 
H 1.38636954 0.106097   0.23466518
H -0.25697063  2.44404393 -0.65294235
H  1.293887    1.83753527 -1.38870943
H -0.43953986  0.62257827 -4.16338287
H  1.30636852  1.15807354 -3.54703361
H  1.35136509 -0.97191082 -2.18855641
H -0.23883649 -1.31362111 -3.0052545 
H  0.87246576 -3.30497515 -4.04586109
H  2.05834388 -2.92640658 -5.25964352
H  2.46131534 -2.88393534 -3.54939288
