30

C  1.33801233 -0.2530176   2.98422753
O 0.44282163 0.0479811  1.93007053
C -0.92494036  0.13298472  2.39842483
C -1.76438253  0.62694488  1.13040812
O -0.98669362  1.20819816  0.14889643
C -1.8307204   1.50070432 -0.95227716
C -0.8459845   1.89555931 -2.11802416
O -0.58552302  0.7640069  -2.89236097
C  0.67680555  0.16781234 -2.66443964
C  0.71214268 -0.72820281 -1.43031593
O  1.80866065 -1.71703819 -1.46824998
C  1.78840411 -2.576453   -0.35757585
H  1.20916512 -1.20506051  3.31513002
H  2.30374055 -0.10216958  2.48688048
H 1.20319787 0.51443039 3.83201344
H -1.00257394  0.91459853  3.17944766
H -1.2522623  -0.7488527   2.67115537
H -2.58544686  1.33802306  1.4671386 
H -2.20957334 -0.2691187   0.66223615
H -2.43008652  2.28836502 -0.90162518
H -2.42117885  0.69469222 -1.36619807
H -1.23725587  2.703172   -2.78070423
H  0.05997596  2.23893053 -1.51327258
H  0.67894792 -0.61783974 -3.3780901 
H  1.4971944   0.81834818 -2.83307355
H  0.81550463 -0.10493265 -0.49525007
H -0.22853513 -1.23479218 -1.19921777
H  0.95675174 -3.2100669  -0.50477306
H  2.76379184 -3.15531808 -0.39890234
H  1.75966372 -2.01233123  0.52883025
