30

C  1.03421782 -1.07296413  3.41245039
O  0.01099033 -0.83836725  2.45521247
C -0.02957573  0.45100913  1.89898697
C -1.36311212  0.64810381  1.13312761
O -1.10609134  1.36400902 -0.03139789
C -2.05499492  1.28674265 -1.05732279
C -1.33825262  1.86360319 -2.29800212
O -0.4975992   0.94698777 -2.94686799
C  0.74360289  0.62961067 -2.26467003
C  0.56413529 -0.73015069 -1.66989329
O  1.71063814 -0.92486549 -0.86969331
C  1.69407785 -2.1070901  -0.14082386
H  0.92663917 -0.53555456  4.44708981
H  0.79392681 -2.09578916  3.77275628
H  1.9715252  -0.81335806  3.01612467
H 0.77521759 0.45841226 1.17548032
H 0.18799582 1.2240686  2.69671351
H -1.98493957  1.13851718  1.93401943
H -1.76984229 -0.33733324  0.92714394
H -2.82093577  1.99047739 -0.83231466
H -2.27206654  0.19780208 -1.21692998
H -2.0870028   2.11535427 -3.01401077
H -0.77830918  2.75984967 -1.97908078
H  1.53234314  0.71431328 -3.10211389
H  0.99068136  1.39629646 -1.5437445 
H -0.46058251 -0.70458155 -1.06939261
H  0.46909244 -1.57447228 -2.42900497
H  1.65196682 -2.97671413 -0.80619913
H  2.63286788 -2.21378058  0.42903252
H  0.73778514 -2.11361949  0.51150801
