30

C  0.94274442 -1.03880009  3.51410885
O -0.06887763 -0.81398977  2.56908662
C 0.03627709 0.42824246 1.81127796
C -1.25088351  0.59677577  1.09697844
O -1.08321201  1.50233742  0.10357191
C -2.00558261  1.31506163 -1.02669131
C -1.45255431  1.88708275 -2.26050732
O -0.51910811  0.99167012 -2.94134307
C  0.72220468  0.59971816 -2.31251876
C  0.57370088 -0.75520124 -1.71111234
O  1.69449821 -0.88373836 -0.8171772 
C  1.71828806 -2.17558161 -0.16446913
H  0.8835271  -0.30801447  4.35565759
H  0.72610597 -2.0337381   4.01883758
H  1.86197068 -1.0661798   3.09469335
H 0.71275903 0.26995492 1.08178119
H 0.25168196 1.29981512 2.50558323
H -2.02792161  0.98544485  1.8195114 
H -1.6587031  -0.41919972  0.65523828
H -2.92412477  1.69458301 -0.81840743
H -2.30241498  0.25983625 -1.20378326
H -2.15456865  2.05385364 -3.00274803
H -0.90919006  2.81000712 -2.00744279
H  1.71785495  0.71147541 -2.97120787
H  0.72759522  1.35793037 -1.50687324
H -0.40396128 -0.78481378 -1.15536053
H  0.46617897 -1.57751659 -2.58117949
H  1.81192617 -3.07801345 -0.7944398 
H  2.63331306 -2.17094333  0.4590852 
H  0.77729763 -2.26156583  0.37858245
