30

C 0.56191442 0.48766725 4.05639228
O -0.53409256  0.43281996  3.18780186
C -0.42441252 -0.47797737  2.19313039
C -1.52787719 -0.26334624  1.16776247
O -1.03966414  0.72655133  0.2335512 
C -1.95414871  1.07189528 -0.79141883
C -1.22177306  2.06418576 -1.72108563
O -0.323793    1.50354396 -2.62437913
C  0.87548841  0.88551825 -2.13153842
C  0.79563004 -0.66936097 -2.07459699
O  2.09040443 -1.07644052 -1.68204969
C  2.17353223 -2.47285161 -1.51697898
H 1.50180526 0.55254306 3.51224647
H 0.56998596 1.42352249 4.67285267
H  0.54572096 -0.43020148  4.60262975
H -0.48763103 -1.47593105  2.57662341
H  0.55305278 -0.41253794  1.57892478
H -2.3394779   0.17348248  1.66348815
H -1.87919502 -1.12850843  0.64358501
H -2.81222391  1.55425712 -0.36909675
H -2.29447774  0.2809332  -1.30178779
H -1.93110345  2.69732868 -2.36042724
H -0.58179003  2.80252477 -1.09976999
H  1.71945504  1.1898149  -2.72015325
H  1.04606273  1.31639365 -1.05955333
H  0.00921945 -1.01287152 -1.31427524
H  0.41242596 -1.02211993 -3.06057018
H  1.8416736  -3.06857027 -2.4643592 
H  3.21148375 -2.61182713 -1.32218922
H  1.60143677 -2.98357006 -0.68581763
