30

C -0.17655073 -0.06641549  4.41536051
O  0.17769241 -0.80397934  3.22396246
C  0.32665396 -0.00918917  2.03615213
C -1.03712752  0.27334081  1.39897384
O -0.63749654  0.98922331  0.22502516
C -1.76002104  1.25462197 -0.64736822
C -1.26285215  1.984101   -1.88432474
O -0.67251559  1.11696769 -2.8223386 
C  0.6932764   0.65752789 -2.57023621
C  0.61593731 -0.80410302 -2.198649  
O  1.99063751 -1.26560994 -2.07956606
C  2.10959575 -2.52469517 -1.50748044
H -1.15174506  0.33782869  4.32412618
H -0.33742233 -0.76866902  5.06216473
H 0.6002573  0.60386551 4.65040047
H  0.955817   -0.58745659  1.41012891
H 0.80931427 1.00016746 2.31801422
H -1.6371891   0.94735379  2.01588972
H -1.61945465 -0.70001296  1.21860212
H -2.50611608  1.84204523 -0.0647748 
H -2.16000016  0.29448101 -0.91576296
H -2.08332526  2.57209952 -2.32555469
H -0.54880245  2.78092868 -1.62927053
H  1.36345367  0.81682334 -3.43098999
H  1.08592326  1.24257706 -1.73804743
H  0.11687263 -0.7916454  -1.26121928
H  0.06300794 -1.35678404 -3.02900805
H  1.53780932 -3.28376822 -2.04712089
H  3.1738509  -2.65477818 -1.57089591
H  1.74807871 -2.5495738  -0.4127359 
