30

C  1.30240801 -0.51725648  2.93399243
O  0.11264718 -0.41931831  2.09509108
C -0.82578672  0.56483545  2.43351591
C -1.79761836  0.71585416  1.2721046 
O -1.09126905  1.24877982  0.18317707
C -1.91151386  1.30816922 -1.01851356
C -0.99736228  1.85351511 -2.09692191
O -0.34594444  0.88078086 -2.90732155
C  0.85217759  0.32505626 -2.40305544
C  0.62813888 -0.79088806 -1.38901733
O  1.88935265 -1.49679606 -1.44272747
C  1.91684366 -2.66481728 -0.59387118
H  1.05649275 -0.74316278  3.9392966 
H  2.08720086 -1.26515377  2.54477096
H 1.77502783 0.45259478 2.94217802
H -0.27478445  1.51009795  2.62889619
H -1.37621582  0.32695511  3.35762471
H -2.53265534  1.39586292  1.63851884
H -2.20853312 -0.33604068  0.97021392
H -2.83091078  1.88815882 -0.82103157
H -2.29745483  0.21163688 -1.32046142
H -1.64807495  2.44675035 -2.77536664
H -0.38779649  2.637707   -1.68846312
H  1.34746118  0.01574007 -3.31039269
H  1.4397489   1.16346239 -1.92093534
H  0.44531237 -0.49662027 -0.40235427
H -0.22999997 -1.47069017 -1.77624841
H  1.08081102 -3.33536197 -0.6997908 
H  2.77356779 -3.36028669 -0.84549758
H  1.95711456 -2.34730374  0.40517278
