30

C  0.15700931 -1.20827613  4.03062657
O -0.4590983  -0.10033992  3.31737813
C -0.65763336 -0.31237179  1.95338177
C -1.18365258  0.96650047  1.33638995
O -1.32594993  0.6679766  -0.03719473
C -1.75974837  1.74839067 -0.77311395
C -1.84385614  1.3935852  -2.32799563
O -0.97426587  0.3185609  -2.65647436
C  0.40365278  0.48639868 -2.48228311
C  1.00940937 -0.77799761 -1.82365561
O  2.35317282 -0.5201814  -1.62260269
C  3.07935057 -1.53304605 -0.90568193
H  1.09859377 -1.40882081  3.585954  
H  0.23663192 -0.84044132  5.00201969
H -0.48440761 -2.09207991  3.96802052
H -1.25138077 -1.25685195  1.61099684
H  0.31955851 -0.62916031  1.52881269
H -0.50233057  1.83182294  1.51829314
H -2.16105802  1.14505166  1.80585809
H -1.1388309   2.55543877 -0.73229858
H -2.73001553  2.08416212 -0.61161227
H -2.90934807  1.02491063 -2.54580362
H -1.57388171  2.26045068 -2.98802701
H  0.78452174  0.51550482 -3.5135942 
H  0.61916976  1.35869782 -1.93226459
H  0.48471202 -1.03625812 -0.8747584 
H  0.80618186 -1.58344165 -2.49877959
H  3.05374396 -2.58275146 -1.30437402
H  4.18700315 -1.24513723 -0.85467895
H  2.62786497 -1.67098562  0.13267385
