30

C -1.90863479  0.49685284  5.561969  
O -1.2047673   0.02624769  4.43489667
C -1.10318573  0.98658483  3.39564643
C -0.34879122  0.2304037   2.28949367
O -0.22962614  1.04487154  1.15031418
C 0.46427443 0.44871263 0.04810512
C  0.41216159  1.51902634 -1.08066201
O -0.42842023  1.06023757 -2.13634969
C  0.21600782  0.58875464 -3.28284052
C  0.70840643 -0.85423826 -3.04231159
O  1.22784225 -1.34403037 -4.28034272
C  1.56631467 -2.66679712 -4.31125456
H -2.93967229  0.96501239  5.43683242
H -1.93941705 -0.44635148  6.20296757
H -1.20688991  1.3085923   5.9878664 
H -0.51181941  1.929853    3.59713892
H -2.10459908  1.2007945   3.22032019
H -0.96789608 -0.69895856  2.07111267
H  0.60323173 -0.07324091  2.65575158
H -0.03019125 -0.46539316 -0.23321217
H 1.47753614 0.23939832 0.37035727
H -0.00470768  2.46839692 -0.72830902
H  1.38792446  1.71554117 -1.40060202
H -0.60589695  0.50829313 -4.03516   
H  0.97919441  1.26367293 -3.60762196
H  1.50681008 -0.94036483 -2.35369779
H -0.10677132 -1.44481724 -2.70255239
H  0.69036749 -3.29211755 -3.94691468
H  1.77039298 -2.84712201 -5.2496114 
H  2.33557797 -2.84991169 -3.55104896
