30

C  1.02044843 -0.99357049  3.57956221
O -0.04318361 -0.79948528  2.60559838
C -0.0243199   0.39886375  1.91451675
C -1.320701    0.51965868  1.11378503
O -1.14690522  1.40706121  0.01392472
C -2.0175325   1.37154213 -1.04628258
C -1.3402345   1.9364967  -2.24428679
O -0.55732233  1.00179619 -2.93772735
C  0.68647632  0.66423476 -2.32003265
C  0.6363373  -0.79193163 -1.82290215
O  1.71358106 -0.97936863 -0.89243883
C  1.68198637 -2.14073227 -0.13801989
H  0.98350131 -0.18773918  4.24358459
H  0.82961479 -2.03543679  4.06530368
H  2.00733262 -0.8370104   3.16117494
H 0.87137857 0.54720528 1.16582344
H 0.17482521 1.19566679 2.65353104
H -2.12251339  1.01215535  1.76176853
H -1.61053312 -0.50899205  0.78768955
H -2.91303309  2.01579017 -0.81058883
H -2.37760222  0.35195946 -1.28122672
H -2.06153197  2.25837309 -3.03069301
H -0.77874384  2.91685607 -2.00428688
H  1.54418506  0.70356437 -2.97981032
H  0.93466789  1.37329411 -1.60437509
H -0.34334818 -1.02078729 -1.27864817
H  0.82285026 -1.46559207 -2.6848295 
H  1.61310869 -3.08348884 -0.73381765
H  2.65683722 -2.2613323   0.42036565
H  0.77668634 -2.26833397  0.55257385
