30

C  0.29829113 -0.73230257  4.31192711
O -0.62191785 -0.39721651  3.3615681 
C -0.16068738  0.31506074  2.17227236
C -1.368231    0.41086564  1.25018963
O -0.945052    1.11020632  0.1206234 
C -1.92044544  1.23698017 -0.92954234
C -1.24545689  1.91812689 -2.08216451
O -0.69061436  0.94825704 -3.0112529 
C  0.64956883  0.55920209 -2.74904473
C  0.68872228 -0.60979113 -1.84225346
O  1.99252315 -1.1392541  -1.9708393 
C  2.29568169 -2.21406628 -1.13339941
H 0.82857186 0.10443973 4.67136109
H -0.27217371 -1.15269392  5.10392617
H  1.01500261 -1.4477337   3.87985324
H  0.56456584 -0.24171492  1.51320071
H 0.41697608 1.25573865 2.38731589
H -2.2957977   0.90242153  1.79904865
H -1.8058714  -0.52801769  1.036554  
H -2.83421118  1.73594942 -0.62193285
H -2.31475747  0.24064299 -1.29323796
H -1.90702456  2.55447103 -2.67493611
H -0.36002589  2.5615843  -1.78785923
H  1.06216341  0.34044163 -3.64938676
H  1.25835596  1.36401482 -2.25287948
H  0.4468299  -0.29901085 -0.81984963
H -0.02897616 -1.34200565 -2.22917986
H  1.62018435 -3.13476347 -1.28738562
H  3.39337823 -2.45582992 -1.486231  
H  2.28792823 -1.95237225 -0.06323119
