30

C -1.6716099  -1.14342601  5.10715222
O -1.10079639 -0.21008967  4.18624826
C -1.66961119 -0.42928741  2.85207239
C -0.90568001  0.49262577  1.94669632
O -1.49901716  0.41852718  0.61991145
C -0.9690277   1.19004536 -0.38949824
C -1.57631331  0.66991893 -1.69358965
O -0.74120379 -0.20481272 -2.4325991 
C  0.37445845  0.3096323  -3.11904366
C  1.61322438 -0.34171577 -2.57762964
O  2.78489706  0.10425597 -3.31086375
C  4.01568594 -0.4097647  -2.85241528
H -1.37507789 -2.1721488   4.86621805
H -1.15478038 -1.03444907  6.17838574
H -2.68870304 -0.99052876  5.23528124
H -2.73061645 -0.06556228  2.92060948
H -1.54817952 -1.46125209  2.55086715
H 0.2046927  0.22493345 1.84275244
H -0.94922692  1.51509643  2.29690782
H  0.12745016  0.94215253 -0.39286546
H -1.16742751  2.24650948 -0.11258015
H -2.44571801  0.06524371 -1.44902264
H -1.85276034  1.62080585 -2.20757158
H  0.27997515  0.10246265 -4.25422496
H  0.51378233  1.39555321 -3.06738869
H  1.65669931 -0.1542745  -1.49472634
H  1.53069099 -1.41688516 -2.62756186
H  4.09791197 -1.59454481 -2.8576376 
H  4.82043044  0.07157881 -3.37971267
H  4.17623859  0.06930997 -1.81136324
