30

C  0.4907657  -0.44201861  4.28207921
O -0.53190703 -0.42591364  3.30708921
C -0.11847177  0.1427172   2.10015529
C -1.36973323  0.35321095  1.2347804 
O -0.90912695  1.07837289  0.06892618
C -1.91942199  1.15759817 -0.94066338
C -1.34192138  1.98757361 -2.15660003
O -0.54366844  1.17719508 -2.93306558
C  0.7111984   0.7251468  -2.48289185
C  0.65938875 -0.78908033 -1.98604879
O  2.01554075 -1.07792335 -1.63773753
C  2.13410814 -2.45327922 -1.1597407 
H 0.747849   0.59481064 4.52843475
H  0.17483539 -0.86040435  5.23752284
H  1.49559456 -0.96736363  3.96544701
H  0.5819412  -0.58432305  1.56705167
H 0.42300126 1.13793784 2.23952588
H -2.08907727  0.96197959  1.76911629
H -1.8349731  -0.55438826  0.99818558
H -2.72957404  1.69819306 -0.45314281
H -2.39801929  0.2104172  -1.49044497
H -2.22414914  2.36284531 -2.63542965
H -0.79423584  2.84174583 -1.75693314
H  1.41056231  0.75727422 -3.34712634
H  1.16623157  1.3724118  -1.69909483
H  0.01736859 -0.81241898 -1.03618312
H  0.25012932 -1.52392664 -2.71581594
H  1.93243214 -3.14797281 -1.93028573
H  3.16919622 -2.56215984 -0.95770333
H  1.54098978 -2.75314002 -0.28230485
