30

C 1.00531514 0.50749622 2.12428199
O -0.18563794  0.20486178  2.84715408
C -1.06187449 -0.80355543  2.37593777
C -1.86061397 -0.42245306  1.08945735
O -1.25904886  0.62749317  0.46779313
C -2.01519445  1.05187919 -0.72606744
C -1.08775132  2.09324869 -1.48205776
O -0.16127115  1.46452126 -2.4108221 
C  0.99193382  1.03368156 -1.7024746 
C  1.01259134 -0.49869238 -1.52220988
O  2.09665652 -0.90940052 -0.80359307
C  2.29093511 -2.37529287 -0.88511293
H 0.80126544 1.53491551 1.55861888
H 1.80122911 0.65909431 2.93918219
H  1.45024027 -0.22351697  1.27697333
H -1.79739719 -1.04725463  3.097881  
H -0.49197055 -1.74624449  2.22761444
H -2.84674849 -0.091979    1.40274305
H -1.99839587 -1.32912194  0.50030343
H -2.95037513  1.5865495  -0.45375374
H -2.41713097  0.13123079 -1.18170013
H -1.63463818  2.56533121 -2.25455076
H -0.59565383  2.81500047 -0.79928999
H  1.90368719  1.15012435 -2.30582525
H  1.12962248  1.51793356 -0.81027959
H  0.05291494 -0.91603981 -1.01858941
H  0.92568062 -0.95439354 -2.58720462
H  2.68726396 -2.55033512 -1.88447997
H  3.20042637 -2.64788013 -0.25255421
H  1.50449717 -2.96636026 -0.54325304
