30

C  0.54291498 -0.77445171  4.09572399
O -0.53873664 -0.28966539  3.26335175
C -0.13755416  0.16550763  2.04568837
C -1.41127188  0.59615094  1.26541853
O -0.99186321  0.9830309  -0.06669559
C -2.0277052   1.33977521 -0.93642714
C -1.44772781  1.84796915 -2.25566551
O -0.62473529  0.95209509 -2.92145317
C  0.65842016  0.65021769 -2.36192664
C  0.73172919 -0.83223656 -1.89830472
O  2.05710603 -0.95108937 -1.46201649
C  2.30925599 -2.22131937 -0.86825842
H 1.33528774 0.12134677 4.19422611
H  0.23434409 -0.83352072  5.13474703
H  1.06694692 -1.60598809  3.59998039
H  0.23476883 -0.73378456  1.46275086
H 0.59802076 0.98092273 2.00724188
H -1.90802039  1.44104614  1.77817114
H -2.08690315 -0.18114755  1.22647783
H -2.71198181  2.2318632  -0.54039716
H -2.86963532  0.53582353 -1.04016507
H -2.22502306  2.12248046 -2.96266508
H -0.85409399  2.71403971 -1.93243676
H  1.44472991  0.79382149 -3.16689647
H  0.93770203  1.29609759 -1.44550868
H  0.10538702 -0.9930974  -1.0432581 
H  0.44556348 -1.51975917 -2.78682456
H  2.19115703 -3.0720145  -1.61077177
H  3.35899878 -2.16654287 -0.50095417
H  1.6116986  -2.39712335 -0.01989109
