30

C  0.59128876 -0.70516088  4.09766527
O -0.4795413  -0.35562123  3.26403446
C -0.08039969  0.20528607  2.01721907
C -1.3225249   0.41862115  1.18977557
O -1.06538299  1.19622361  0.05506004
C -2.00999956  1.30386557 -0.98271404
C -1.3488303   1.99456667 -2.19873729
O -0.57082504  1.09622295 -2.96651237
C  0.68712643  0.62164766 -2.43883002
C  0.61839341 -0.78252579 -1.87129616
O  2.02004716 -1.0667186  -1.53563382
C  2.15424243 -2.29444815 -0.80976481
H 1.35454562 0.17227    4.29546117
H  0.19877586 -0.9901787   5.13375922
H  1.17598503 -1.53263938  3.64285352
H  0.49401137 -0.37203635  1.48070791
H 0.37314947 1.24060005 2.26782536
H -2.12266237  0.80646582  1.85219046
H -1.73944591 -0.60346815  0.84697697
H -2.8315332   1.92415464 -0.66104312
H -2.28889532  0.32904291 -1.31860711
H -2.04227015  2.36788244 -2.95640909
H -0.78883875  2.85052138 -1.8680536 
H  1.48953825  0.65171619 -3.2577022 
H  0.97293544  1.35435866 -1.64465948
H -0.00460638 -0.80714227 -0.98679879
H  0.39195541 -1.42738656 -2.74594826
H  1.85594584 -3.09086817 -1.48325351
H  3.1580214  -2.38080793 -0.60259243
H  1.61076811 -2.28235638  0.16146145
