30

C -1.45457746  0.57797673  5.73675438
O -1.06690223  0.05711833  4.47028428
C -1.04539809  0.93631501  3.40431269
C -0.63723934  0.0505558   2.23040665
O -0.58159155  0.97754312  1.07675969
C -0.35229025  0.44821316 -0.14271425
C -0.09282908  1.57871904 -1.19010818
O -0.44421012  1.10414899 -2.50308857
C  0.63943422  0.61183498 -3.26669641
C  0.76332423 -0.90093474 -3.09842094
O  1.70796607 -1.31621974 -4.0658063 
C  1.90778575 -2.61077818 -4.1736408 
H -2.40228292  1.13104872  5.64215943
H -1.61934762 -0.21470616  6.31953288
H -0.60486835  1.19157092  6.02586068
H -0.2629835   1.77694521  3.61774163
H -2.03378409  1.49559577  3.28509098
H -1.56467701 -0.60704596  2.17945544
H  0.32053817 -0.46565378  2.52166867
H -1.19052342 -0.2284124  -0.4218483 
H  0.51523972 -0.2599452  -0.2997537 
H -0.64151905  2.3197281  -0.94296855
H  0.98057181  1.88159385 -1.08576086
H  0.47251501  0.75339272 -4.4320159 
H  1.55101754  1.25185781 -3.15270322
H  1.21058826 -1.11059967 -2.15345702
H -0.17975577 -1.36804483 -3.06425368
H  1.01347154 -3.24899831 -4.30072551
H  2.596008   -2.76766437 -5.07189696
H  2.50175215 -3.07483088 -3.30378818
