30

C -1.93393824  0.54329375  5.52497157
O -1.14935373  0.0365673   4.46398815
C -1.0491887   0.89519627  3.35689402
C -0.25680085  0.10888726  2.25148183
O -0.22918231  1.02390774  1.18533295
C  0.28695508  0.45378629 -0.01371565
C  0.30042688  1.56190882 -1.10030639
O -0.47306552  1.11307395 -2.20036377
C  0.26525616  0.59560676 -3.35064038
C  0.66665977 -0.84032502 -3.08156642
O  1.2615031  -1.34574045 -4.22491535
C  1.67033293 -2.64342717 -4.18378742
H -3.03587594  0.73435518  5.42646146
H -1.85659521 -0.22363894  6.29979575
H -1.44695469  1.5724833   5.83111791
H -0.48210044  1.81430294  3.45738456
H -2.05120491  1.17250065  2.96998478
H -0.95205179 -0.75790807  2.02361473
H  0.72886108 -0.19552553  2.55590228
H -0.34432679 -0.36449187 -0.27947065
H 1.36527977 0.05327395 0.28529506
H -0.21483422  2.36865511 -0.66168972
H  1.39752922  1.85744087 -1.40295189
H -0.37766226  0.75069972 -4.25538188
H  1.19172523  1.21444698 -3.48861343
H  1.20842278 -0.8385545  -2.15114623
H -0.27436985 -1.36650836 -2.74382886
H  0.89619227 -3.4012294  -3.99679605
H  2.17941423 -2.84196964 -5.12810149
H  2.35188281 -2.80597993 -3.38808604
