30

C -0.31243982 -0.10027403  5.20606655
O -1.0952838  -0.21701025  4.00367184
C -0.54256538  0.56937165  2.96079903
C -1.38615129  0.30397486  1.66213202
O -0.79413517  0.97883182  0.60628388
C -1.51535752  0.82757369 -0.55786428
C -0.77054539  1.75928799 -1.6802405 
O -0.71602358  1.14408302 -2.96515198
C  0.54787352  0.57599377 -3.30244607
C  0.82969739 -0.70470591 -2.62731305
O  2.04199253 -1.23665256 -3.14825913
C  2.47470585 -2.44935419 -2.51239216
H -0.3378432   0.93819174  5.62228628
H -0.63360482 -0.85655128  5.8877497 
H  0.77525151 -0.34020016  5.10564335
H 0.4640945  0.25411171 2.82857875
H -0.63115885  1.62163339  3.10242105
H -2.46627196  0.68535518  1.79881858
H -1.33933071 -0.83536035  1.59435268
H -2.56798776  1.22687992 -0.46531351
H -1.45744297 -0.17555756 -0.99472569
H -1.31683968  2.6090395  -1.76162533
H  0.2472631   1.94425451 -1.38434783
H  0.48084445  0.36294443 -4.36110175
H  1.38996038  1.3140989  -3.22836853
H  0.94371016 -0.53600342 -1.52687999
H  0.06132921 -1.44486986 -2.7219981 
H  1.73432669 -3.2129917  -2.71682987
H  3.32587094 -2.73561292 -3.19440783
H  2.64256227 -2.27983403 -1.40054248
