30

C -1.94154306  0.55827444  5.60641638
O -1.23227591  0.05600195  4.47414009
C -1.13525746  0.89587179  3.37959661
C -0.34351048  0.19818855  2.2564847 
O -0.13906883  1.0701587   1.1908463 
C 0.50494552 0.51295907 0.10117961
C  0.39989744  1.47711519 -1.08285551
O -0.48483696  1.06173593 -2.1220427 
C  0.20566628  0.57868183 -3.30090631
C  0.64308002 -0.92936599 -3.05577865
O  1.26878701 -1.30225777 -4.31102272
C  1.61191399 -2.657254   -4.37669061
H -2.93637425  0.61937923  5.32622292
H -1.80400454 -0.11194931  6.4479254 
H -1.53904184  1.52862426  5.70242326
H -0.60704495  1.8564955   3.61234622
H -2.21433324  1.19725849  3.1120408 
H -0.72537838 -0.74877836  2.11134932
H  0.5320753  -0.21186845  2.76032512
H  0.10196483 -0.44083159 -0.2879093 
H 1.53630136 0.41153381 0.43701142
H -0.23912792  2.41843131 -0.79303925
H  1.29497522  1.83905946 -1.35616137
H -0.58517253  0.47162221 -4.09353506
H  1.11170244  1.11744577 -3.60812638
H  1.33592122 -1.00612014 -2.30087904
H -0.24421451 -1.59663339 -2.74727425
H  0.64842412 -3.34809585 -4.5418605 
H  2.16183758 -2.74172807 -5.41914355
H  2.22107385 -2.98460864 -3.44737871
