30

C  0.49803803 -0.13411127  4.40471343
O -0.56957427  0.16148269  3.47515003
C -0.21612161 -0.18768153  2.12514236
C -1.50716342  0.19774953  1.29727663
O -1.03232815  0.86454131  0.12649899
C -1.99090678  1.19475863 -0.89202538
C -1.27760315  1.901086   -2.00873609
O -0.46051916  1.27760803 -2.88702208
C  0.83985744  0.84329635 -2.44275938
C  0.77021107 -0.69314796 -2.13278031
O  2.08317526 -1.0445055  -1.69017209
C  2.17185944 -2.42672415 -1.31216698
H 1.35419191 0.55939588 4.12985421
H 0.22601801 0.20180328 5.35229343
H  0.74845756 -1.31243514  4.40840042
H -0.03154164 -1.29937781  1.93876765
H 0.65705582 0.45079987 1.86059597
H -2.06468927  0.87197242  1.97919576
H -2.12830138 -0.57738898  1.02050406
H -2.66817692  1.90640576 -0.2992622 
H -2.40057494  0.23886796 -1.26231351
H -2.08625791  2.41549252 -2.5756772 
H -0.5505765   2.71180366 -1.5093388 
H  1.49334359  1.11370832 -3.14105782
H  1.11264032  1.40149229 -1.55185592
H  0.05892993 -0.86089639 -1.41670666
H  0.33854583 -1.25511678 -3.00553522
H  1.95379844 -3.02314562 -2.25597255
H  3.15836149 -2.70630943 -0.88943078
H  1.31992881 -2.56005641 -0.681305  
