30

C -1.62037376  0.63349617  5.65659449
O -1.11683641  0.0828967   4.49036493
C -0.88475102  0.89196671  3.43325267
C -0.63332329  0.13258225  2.18922997
O -0.51309987  0.96728037  1.13833165
C -0.17637413  0.37951309 -0.07731563
C -0.14900953  1.51547421 -1.10456701
O -0.45108785  1.10408464 -2.41941792
C  0.5743039   0.60271534 -3.27588113
C  0.82130555 -0.85949133 -3.16858583
O  1.63054382 -1.28775155 -4.20993144
C  1.91656695 -2.66273018 -4.18289242
H -2.66066246  1.06309157  5.64531063
H -1.6631744  -0.32026342  6.27877909
H -0.92222488  1.40156607  6.07214578
H -0.13805149  1.80168067  3.62715607
H -1.90176156  1.51196048  3.28822236
H -1.42050288 -0.70770883  1.95844478
H  0.27134727 -0.37406582  2.31789748
H -1.06465969 -0.23999532 -0.43662291
H  0.82246789 -0.14408533 -0.09945783
H -0.79020267  2.26967665 -0.83559989
H  0.93991516  1.88749726 -1.26125289
H  0.07749786  0.76516369 -4.33063536
H  1.50546332  1.12206463 -2.99368563
H  1.30326307 -1.18428319 -2.13187874
H -0.2202367  -1.2145839  -3.19276443
H  1.07754451 -3.251444   -4.28239733
H  2.58348342 -2.98998616 -4.99608343
H  2.45426024 -2.90036784 -3.18798648
