30

C -1.02901506  0.54159784  5.67265743
O -1.25294592  0.01681939  4.38222275
C -0.7496554   0.8101072   3.33639092
C -1.13710682  0.05598572  2.05220466
O -0.63318204  0.88132208  0.99170798
C -0.9348285   0.48172529 -0.37449226
C -0.41467451  1.5549569  -1.31925065
O -0.57120411  1.07834394 -2.62580546
C  0.60957617  0.62350263 -3.34363693
C  0.88454847 -0.8087648  -2.96500118
O  1.87987626 -1.24497205 -3.89882795
C  2.34946615 -2.53658342 -3.70445533
H -1.37689492  1.63032319  5.73330271
H -1.62286015 -0.11216752  6.34591234
H 0.06314611 0.42540098 5.85205612
H 0.31240962 0.88794426 3.3047856 
H -1.1098833   1.85423542  3.45251657
H -2.25053715  0.02094026  1.94483645
H -0.7674609  -1.05910998  2.01842431
H -1.98716036  0.46608503 -0.46855181
H -0.4120985  -0.46652186 -0.51492771
H -0.98782137  2.50025455 -1.23482116
H  0.70888134  1.80373937 -1.17117392
H  0.17315676  0.68506218 -4.43158785
H  1.37160395  1.32209145 -3.32376031
H  1.16364589 -0.88336963 -1.87286051
H  0.08957431 -1.40293152 -3.20285545
H  1.60049895 -3.32627531 -3.92940745
H  3.21492444 -2.71867671 -4.33715132
H  2.60877268 -2.7350008  -2.62764904
