30

C  0.32899121 -0.79174212  4.26006129
O -0.71418037 -0.46007955  3.34375029
C -0.28786375  0.28470092  2.2578102 
C -1.43170378  0.37084176  1.28562898
O -1.0180772   1.2708226   0.28877744
C -1.85453364  1.24865228 -0.87628456
C -1.10590515  1.91101727 -2.0354558 
O -0.7468944   0.99127954 -3.0414888 
C  0.55826414  0.420878   -3.01085286
C  0.70085693 -0.60849205 -1.91416823
O  1.99466868 -1.15357481 -2.08044011
C  2.34954122 -2.18478513 -1.14971955
H 0.66692024 0.17022779 4.73865367
H  0.07331328 -1.52111447  5.06059783
H  1.17302609 -1.19164546  3.68740746
H  0.58343904 -0.3241165   1.74746941
H 0.12729542 1.32223558 2.40474474
H -2.22566337  0.90848782  1.78929718
H -1.82130564 -0.5066989   0.94912198
H -2.87036923  1.7432901  -0.71156781
H -2.02752713  0.0876039  -1.02847917
H -1.74435876  2.63723138 -2.42132096
H -0.22887776  2.38793158 -1.57991261
H  0.87002772  0.0385639  -3.96401579
H  1.36055139  1.25804775 -2.74953304
H  0.59428882 -0.09425314 -0.90924442
H -0.09966067 -1.48279995 -1.94131694
H  1.63589501 -3.0493582  -1.17892739
H  3.33758042 -2.51898972 -1.52223707
H  2.33201942 -1.80956842 -0.11018141
