30

C 0.8979741  0.67190454 2.26454106
O -0.09615767 -0.10987042  2.88685361
C -0.81675496 -0.97465963  2.10060452
C -1.84884775 -0.25061081  1.19608376
O -1.26307908  0.63137314  0.32655363
C -2.00057004  1.11163696 -0.75560192
C -1.11554935  2.10758056 -1.50030898
O -0.18819089  1.41421695 -2.27425136
C  0.97334813  0.92503249 -1.61264952
C  0.97108672 -0.64264181 -1.53264837
O  2.09203798 -0.95311991 -0.85259357
C  2.29350429 -2.34660079 -0.58228386
H 0.39090146 1.50631924 1.84020411
H 1.5553117  0.89557639 3.02238849
H 1.41239188 0.17005027 1.51651553
H -1.41275808 -1.75110391  2.66638089
H -0.13316031 -1.5945807   1.45945719
H -2.57251258  0.20708519  1.87792984
H -2.42971457 -0.97936356  0.78073447
H -2.86877755  1.66005368 -0.47427944
H -2.34188257  0.25753192 -1.48382992
H -1.78446387  2.71572014 -2.12441481
H -0.65662202  2.80544746 -0.75151518
H  1.84452045  1.26875224 -2.07275407
H  1.0277774   1.32832606 -0.54111459
H  0.08578546 -0.97048606 -1.03371392
H  1.08292645 -1.11619642 -2.53707663
H  2.52582935 -2.90808743 -1.44656446
H  3.19421027 -2.45946227  0.01781547
H  1.4108725  -2.78601253 -0.11264292
