30

C  0.24005368 -0.54124634  4.59802948
O -0.69605747 -0.52084109  3.47740751
C -0.39078707  0.30170134  2.31789183
C -1.50050126  0.34023109  1.39253906
O -0.86263453  0.99598027  0.27615046
C -1.7847908   1.09179453 -0.90634297
C -1.05921455  1.98563269 -1.9894527 
O -0.68390292  1.05715021 -3.08230626
C  0.60891673  0.54143402 -3.10889626
C  0.71435399 -0.52165263 -2.00113715
O  1.95710378 -1.17993874 -2.26158826
C  2.24128261 -2.23797932 -1.39409146
H 0.32213261 0.45381566 5.00484053
H -5.30269662e-03 -1.21886434e+00  5.36288852e+00
H  1.22272257 -0.84001644  4.30179783
H  0.54017149 -0.03090387  1.94442581
H -0.1802112   1.34556602  2.81388901
H -2.31305308  0.96276558  1.82736967
H -1.79959391 -0.64287998  1.01516622
H -2.71857385  1.73090254 -0.59612905
H -2.11795112  0.01373507 -1.25533269
H -1.86648612  2.7130578  -2.28881503
H -0.09180196  2.50604054 -1.68984876
H  0.75731946  0.11451    -4.07454323
H  1.33355508  1.28892943 -2.99090789
H  0.66657126 -0.13795883 -1.0476925 
H -0.17491089 -1.20366046 -2.07749845
H  1.4650445  -3.02488811 -1.5484539 
H  3.30063441 -2.40959834 -1.58360221
H  2.17201185 -1.96517402 -0.39202603
