30

C -1.74338876  0.70346556  5.70433605
O -1.15748674  0.09702652  4.54634501
C -1.20574537  0.88944977  3.3392283 
C -0.50563258  0.06671534  2.23902279
O -0.26483748  0.98274024  1.16436926
C  0.15004383  0.37974527 -0.00695981
C  0.23048671  1.50206997 -1.10402277
O -0.45934507  1.07028423 -2.24359158
C  0.33573696  0.61494955 -3.29575615
C  0.73418132 -0.88628322 -3.08801496
O  1.42661513 -1.25790184 -4.29894234
C  1.80258291 -2.64768038 -4.38937658
H -2.81788726  0.9329719   5.58880448
H -1.69966281 -0.09383182  6.51157001
H -1.11835494  1.56893167  6.09139284
H -0.72936662  1.80712196  3.50398434
H -2.28003865  1.25007396  3.09779632
H -1.17529182 -0.70926477  2.07537501
H  0.49776665 -0.38559988  2.60336586
H -0.53858071 -0.39580677 -0.36086458
H  1.08362351 -0.12465303  0.20069457
H -0.31277716  2.35882315 -0.73124455
H  1.1892216   1.78886519 -1.32870246
H -0.28039451  0.8573926  -4.19583609
H  1.22720407  1.27156698 -3.44594198
H  1.28661969 -1.07346616 -2.12901229
H -0.14899992 -1.61761792 -3.06716707
H  0.89017709 -3.27483961 -4.28223189
H  2.25622663 -2.77417674 -5.37653705
H  2.42847348 -3.05546673 -3.62407376
