30

C  1.302653   -0.30077971  3.02278145
O  0.3651899  -0.14211786  1.96279747
C -0.94915254  0.24255144  2.43489894
C -1.78988629  0.59840887  1.27877944
O -1.05610699  1.30393217  0.27566484
C -1.77898533  1.35196354 -0.97560045
C -0.87274072  1.88842841 -2.06212168
O -0.46667747  0.82779681 -2.97517424
C  0.83180527  0.23929485 -2.6635128 
C  0.65775524 -0.78249309 -1.47332793
O  1.73255823 -1.66504953 -1.51007027
C  1.85740079 -2.59951703 -0.47454972
H  0.96165115 -0.98328155  3.86428744
H  2.09245498 -0.73941212  2.42797551
H 1.55813969 0.73205284 3.51824097
H -0.90428823  1.17219013  3.19348388
H -1.3505464 -0.5585585  3.0043951
H -2.51108324  1.32890969  1.65017475
H -2.15682332 -0.13804162  0.8290545 
H -2.57165139  2.13095985 -0.77618473
H -2.05211236  0.41614134 -1.31890062
H -1.48600254  2.54940756 -2.72754398
H -0.03289877  2.47208784 -1.62226785
H  1.10849041 -0.2560924  -3.63481966
H  1.56610908  0.89318212 -2.47708323
H  0.53106047 -0.05912804 -0.63592283
H -0.27986149 -1.38453075 -1.62274393
H  1.04198112 -3.41597144 -0.4543071 
H  2.84226084 -3.10052555 -0.60402377
H  1.74172579 -2.13561459  0.45607271
