30

C -1.57858313  0.58826479  5.69420907
O -1.14769095  0.06584792  4.46140737
C -1.05765541  0.9480555   3.39594658
C -0.55628068  0.09812272  2.23335485
O -0.41429356  0.98457108  1.09925446
C -0.06964988  0.38227867 -0.14574985
C -0.01642072  1.55316291 -1.12071805
O -0.44089626  1.13008746 -2.41042591
C  0.51176093  0.58952486 -3.29523201
C  0.76072535 -0.86736427 -3.12631844
O  1.56121012 -1.26851373 -4.1661958 
C  1.85176221 -2.67406414 -4.16322113
H -2.57868608  0.98025518  5.67829425
H -1.72661466 -0.35122879  6.32215242
H -0.7926076   1.30411949  5.98275011
H -0.39844789  1.75033802  3.76449821
H -2.06826399  1.39839669  3.13917617
H -1.22296512 -0.78180025  1.98340202
H  0.35837477 -0.41109109  2.50543181
H -0.93044386 -0.2863508  -0.34936135
H  0.90659193 -0.09563871 -0.09607623
H -0.70614971  2.29925787 -0.85427027
H  0.96409367  1.90888867 -1.21938354
H  0.07385965  0.88426786 -4.23558465
H  1.51507511  1.14446317 -3.25337533
H  1.18160248 -1.03118778 -2.10501446
H -0.18490179 -1.43818846 -2.9777675 
H  1.0184329  -3.32947274 -4.09940331
H  2.3632497  -2.91974979 -5.04484295
H  2.37506034 -2.99402534 -3.19515574
