30

C  1.32525995 -0.13132785  2.99246805
O 0.41179129 0.22906829 1.99512485
C -0.88547608  0.11346803  2.3659683 
C -1.78309616  0.62462353  1.24232015
O -1.05510085  1.12876982  0.15918843
C -1.84372357  1.51348476 -1.00292569
C -0.79767568  1.86008499 -2.10808509
O -0.53500415  0.77624417 -2.89931701
C  0.65900282  0.07647185 -2.69325306
C  0.66161692 -0.74838218 -1.43647642
O  1.68249124 -1.70763488 -1.53111696
C  1.8956401  -2.63077563 -0.43211712
H  1.12807114 -1.02946924  3.31862176
H 2.33263959 0.01906191 2.58995598
H 1.30586506 0.45711068 3.94079516
H -1.19611286  0.66681462  3.22885008
H -1.15705177 -0.97477118  2.56772041
H -2.48891107  1.37620483  1.72005238
H -2.3978793  -0.11452358  0.88663279
H -2.46533025  2.44176361 -0.80794106
H -2.46357659  0.73993642 -1.32106139
H -1.24468328  2.55759298 -2.62772388
H  0.11529818  2.37683082 -1.57559837
H  0.84812573 -0.57201444 -3.52996148
H  1.50143548  0.85159415 -2.68878954
H  1.00289334 -0.11409929 -0.59265309
H -0.35872612 -1.08581636 -1.26032086
H  1.08115673 -3.10900507 -0.17471179
H  2.83423959 -3.32388221 -0.55719067
H  2.07235941 -2.0303488   0.52873091
