30

C  1.06736317 -0.90464315  3.3267673 
O  0.05825409 -0.78734026  2.36699316
C -0.29403122  0.57398111  2.15859125
C -1.51282224  0.65052676  1.17535676
O -1.07029781  1.35202468  0.05904703
C -2.00007927  1.31180231 -1.04924995
C -1.2786411   1.92527083 -2.29633877
O -0.4459207   0.96059913 -2.95497768
C  0.74239109  0.53483195 -2.3276404 
C  0.59772322 -0.89375151 -1.7193978 
O  1.8329148  -1.17436872 -1.15086219
C  1.86504332 -2.31919711 -0.32832282
H  0.93600178 -0.45669905  4.27539397
H  1.20265319 -1.97039987  3.5501049 
H  2.04340697 -0.56636865  2.85145759
H 0.58324723 1.03683446 1.64701016
H -0.56900816  1.10721577  3.07706597
H -2.3070536   1.23790661  1.81681091
H -1.85605311 -0.44018247  0.91823592
H -2.8994117   1.94854061 -0.74469812
H -2.27870767  0.26599822 -1.36623556
H -2.08606495  2.25729853 -2.97902635
H -0.71933035  2.82419638 -1.92713079
H  1.53089715  0.57790585 -3.01657281
H  1.05626254  1.26441251 -1.50259218
H -0.22754427 -0.84842833 -0.8845665 
H  0.37316128 -1.548681   -2.47677677
H  1.8223219  -3.27674054 -0.7936347 
H  2.78959988 -2.38604391  0.13884912
H  1.06986196 -2.22174197  0.45091301
