30

C -0.16640617 -1.43170209  4.1192698 
O -0.51313069 -0.3237173   3.37262642
C -0.80329151 -0.54580441  1.98482941
C -1.06801106  0.83916928  1.40273455
O -1.40470689  0.55168668  0.08113234
C -1.3492245   1.67322925 -0.81019167
C -1.77353815  1.27549799 -2.23034951
O -1.07629831  0.09717136 -2.60867006
C  0.23433272  0.24298438 -2.88135026
C  1.04737194 -0.2178746  -1.66327803
O  2.33851997 -0.52687414 -2.06983877
C  3.1175459  -1.13186564 -1.06119159
H  0.66326559 -1.9744049   3.63168319
H  0.08902919 -1.02368426  5.12242189
H -0.99645693 -2.14669707  4.16109165
H -1.65173768 -1.26446021  1.85492834
H -0.03228363 -1.15097981  1.43673456
H -0.17684788  1.6066506   1.62375649
H -1.72508164  1.43520906  2.01669151
H -0.37175156  2.29583539 -0.76945509
H -2.05138465  2.29438788 -0.47839825
H -2.7435163   0.79361314 -2.28992174
H -1.6933367   2.11857549 -2.99849915
H  0.72605925 -0.22338167 -3.7344099 
H  0.52119631  1.31815279 -2.90133753
H  0.95709587  0.58921431 -0.93869261
H  0.40134052 -1.05195559 -1.25770815
H  2.78201852 -2.06119808 -0.61794526
H  4.07916405 -1.30158051 -1.47267366
H  3.17949838 -0.48612437 -0.17962938
