30

C  0.31430755 -0.74247942  4.33531462
O -0.64002484 -0.50608874  3.33258357
C -0.23888593  0.28756528  2.19529467
C -1.44256316  0.46856725  1.30557151
O -0.98173478  1.15908451  0.17478315
C -1.94095957  1.23867137 -0.8791526 
C -1.20172419  1.883234   -2.07749163
O -0.75344424  0.99206759 -3.05889471
C  0.61504841  0.53374442 -2.95124619
C  0.76659194 -0.57220916 -1.88301996
O  2.06848139 -1.19706377 -2.04109017
C  2.3162862  -2.24330075 -1.07699106
H 0.71394193 0.19222283 4.63408602
H -0.17074905 -1.23951222  5.09833456
H  1.13380589 -1.40361462  3.98688965
H  0.62455252 -0.26722841  1.65884599
H 0.09997177 1.20097536 2.69605852
H -2.22946398  0.94631487  1.80052008
H -1.8752531  -0.52628444  1.03196338
H -2.77237444  1.98233361 -0.46389182
H -2.31793586  0.20123931 -1.06607151
H -1.81644542  2.53746478 -2.567752  
H -0.37418857  2.43873082 -1.66570274
H  0.92392761  0.10339876 -3.90996898
H  1.26923566  1.44998134 -2.68185042
H  0.68685562 -0.05756077 -0.8508721 
H -0.15093174 -1.2863525  -2.01446789
H  1.65557074 -3.06563417 -1.15778301
H  3.35471142 -2.61141239 -1.33605061
H  2.25798759 -1.70001709 -0.12280225
