30

C -0.142246 -3.27684  -3.82897 
O  0.539446 -2.17921  -4.33252 
C  0.409427 -1.0122   -3.55479 
C  1.02103 -1.06695 -2.16131
O  0.412876  -0.0453786 -1.39283  
C  0.951728  0.327334 -0.168583
C 0.0320073 1.20967   0.685432 
O 0.441394 1.37845  2.00166 
C 0.330711 0.215502 2.764   
C -0.691699  0.36677   3.90419 
O -1.9848    0.539012  3.48544 
C -2.36276  1.88215  3.04543
H -0.165758 -3.95398  -4.61731 
H -1.12449 -3.07455 -3.44565
H  0.504291 -3.7596   -3.03457 
H -0.676971 -0.853691 -3.45695 
H  0.918615 -0.207017 -4.12613 
H  0.863883 -1.98994  -1.5817  
H  2.07603 -1.07477 -2.19496
H  1.91783   0.88535  -0.284209
H  1.04406  -0.600848  0.363258
H -0.0578544  2.24247    0.278798 
H -0.940366  0.653116  0.588733
H  0.0396039 -0.545739   2.09262  
H  1.28478   -0.0545941  3.23596  
H -0.70883  -0.608208  4.35118 
H -0.292899  1.06274   4.58056 
H -1.96249  2.1014   2.05262
H -3.41271  1.90061  2.90636
H -2.03638  2.63802  3.71439
