30

C -2.44928  -3.39347  -0.439382
O -2.67781 -3.39468  0.92645
C -1.74629 -2.55745  1.68044
C -2.14504 -1.1219   1.42015
O -1.52743  -0.727104  0.232651
C -1.72706   0.58884  -0.192601
C -0.780229  0.882244 -1.40954 
O  0.520177  0.96328  -0.97439 
C  0.923319  2.12524  -0.285276
C 2.33429  1.81342  0.349166
O  3.31611   1.77731  -0.605375
C  4.61865  1.3561  -0.24482
H -1.37412  -3.41017  -0.684222
H -2.70185  -2.44676  -0.779816
H -2.95004 -4.21834 -1.03067
H -2.02657 -2.80184  2.67824
H -0.819791 -2.78733   1.23802 
H -3.25549 -1.04774  1.19149
H -2.04215  -0.326567  2.20239 
H -1.36514   1.32586   0.492946
H -2.78295   0.828231 -0.368366
H -0.817637  -0.0832557 -2.01587  
H -0.99834  1.83161 -1.95739
H  1.07766   3.06668  -0.879246
H 0.357813 2.30125  0.626563
H 2.38265 2.60765 1.11694
H 2.227    0.798336 0.819764
H  4.74041    0.268231  -0.0904815
H  5.22879  1.54171 -1.12322
H 5.0584   1.87799  0.584788
