30

C  1.21129   0.569219 -1.97496 
O  1.34728  -0.511339 -2.91674 
C  0.350512 -1.50506  -2.81944 
C  0.512147 -2.42897  -1.62558 
O -0.0572382 -1.74581   -0.517832 
C -1.43127  -1.55845  -0.510334
C -1.9539   -1.46431   0.956253
O -1.89267  -0.111751  1.38489 
C -0.621073  0.252915  1.8767  
C -0.72403  1.73707  2.25462
O 0.358251 2.44978  1.76013 
C 1.5104  2.33516 2.48532
H  1.34772   0.107934 -1.04518 
H  0.330543  1.12813  -2.29302 
H  2.12699  1.22118 -2.05403
H  0.329553 -2.09505  -3.77882 
H -0.661978 -1.06527  -2.7392  
H  2.14239e-03 -3.33834e+00 -1.86595e+00
H  1.56233 -2.54737 -1.36736
H -1.89685  -2.47248  -0.944354
H -1.72511  -0.651037 -1.10953 
H -3.02185 -1.78524  1.06906
H -1.35747 -2.11728  1.54374
H -0.33732  -0.443256  2.6794  
H 0.293426  0.0975552 1.21104  
H -1.6543   2.05467  1.93843
H -0.696641  1.83971   3.38262 
H 1.52134 3.17215 3.22087
H 1.56418 1.3959  3.08314
H 2.31129 2.53497 1.81703
