30

C -1.10578  1.00075 -4.18421
O -2.287    1.19744 -3.37476
C -2.13861  1.9413  -2.17894
C -1.26495  1.01988 -1.31281
O -1.32646    1.29078    0.0439684
C -1.45034   0.270446  0.908709
C -0.128088 -0.488168  1.03749 
O -0.302143 -1.74099   1.61151 
C  0.738783 -2.66274   1.46125 
C  1.94873 -2.22526  2.21059
O  2.56491 -1.0481   1.64757
C  3.37518  -0.387688  2.62044 
H -1.41508   0.857409 -5.19362 
H -0.594968  0.073551 -3.8529  
H -0.559872  1.96602  -4.16705 
H -3.12091  2.07609 -1.80169
H -1.75223  2.96657 -2.3473 
H -1.60544   -0.0136363 -1.53232  
H -0.20866  1.10635 -1.67474
H -2.23477  -0.479211  0.757873
H -1.75651   0.775865  1.90585 
H  0.333829 -0.643818  0.130639
H 0.599928  0.0834637 1.55225  
H  0.372948 -3.67534   1.98683 
H  0.972327 -2.77177   0.360135
H  1.62863 -2.09219  3.26991
H  2.71519 -2.98785  2.35671
H 3.94688  0.499946 2.10293 
H  2.71265   -0.0230408  3.33053  
H  4.20809  -0.948985  3.05996 
