30

C -1.39276  2.52381 -2.61582
O -2.21895  2.2291  -1.45243
C -2.8009    0.906964 -1.43709 
C -3.29272    0.5451    -0.0240531
O -2.18581   -0.0853041  0.681466 
C -1.10347   0.712259  1.02411 
C -0.158791  -0.0691465  1.99465  
O  0.685405 -0.913976  1.21551 
C  1.94364 -1.08123  1.73084
C  2.6949  -2.17226  0.98744
O  2.79461  -1.74615  -0.372865
C  3.66468 -2.63569 -1.08241
H -0.88563  1.6315  -3.07452
H -0.507367  2.98349  -2.28892 
H -1.96095  3.09624 -3.30321
H -2.11484   0.157203 -1.60278 
H -3.53096   0.922845 -2.21068 
H -3.70856   1.42773   0.433288
H -4.10307  -0.192502 -0.167198
H -1.43102  1.56926  1.61815
H -0.54001   1.13853   0.164641
H 0.32613  0.708394 2.58935 
H -0.842966 -0.683617  2.6985  
H  2.47715  -0.177747  1.58815 
H  1.93982 -1.45562  2.80192
H  3.68821 -2.33039  1.3632 
H  2.25845 -3.17351  1.09255
H  3.8229  -2.14554 -2.05717
H  4.57218  -2.81214  -0.589084
H  3.03048 -3.58829 -1.2686 
