30

C 4.02364  1.80142  0.687499
O 2.67661  2.49551  0.836475
C  1.98863   2.51657  -0.412118
C  1.30292   1.15168  -0.764872
O  0.129372  1.00064  -0.12393 
C 0.149126 0.361008 1.15302 
C -1.28234   0.178416  1.60639 
O -1.90244 -1.07766  1.22458
C -2.38488  -1.08243  -0.111905
C -2.94031  -2.36621  -0.767513
O -2.03547  -3.44202  -0.866389
C -1.09706 -3.28635 -1.95047
H 4.32167 1.63252 1.74431
H 4.75091  2.44773  0.249545
H 3.97492  0.848149 0.182555
H  2.5981   2.95992 -1.24997
H  1.1114    3.11736  -0.161076
H  1.0711   1.33823 -1.82418
H  1.9916    0.285856 -0.892313
H 0.574209 1.08505  1.76948 
H  0.647047 -0.671441  1.06372 
H -1.28299   0.169532  2.69065 
H -1.84406  1.08353  1.36141
H -3.26081   -0.474333  -0.0281352
H -1.86344  -0.588672 -0.912811
H -3.72373  -2.74809  -0.184655
H -3.36888 -2.06356 -1.78676
H -0.351731 -4.11526  -1.76377 
H -1.57995 -3.28448 -2.97503
H -0.431187 -2.38155  -1.79669 
