30

C  4.21801 -2.56396 -2.44781
O  2.97138 -2.02549 -2.53939
C  2.28576 -1.80145 -1.37499
C  0.883325 -1.31445  -1.78885 
O -0.0433108 -0.897126  -0.844892 
C -0.0293359  0.432648  -0.462121 
C 0.562829 0.661387 0.905573
O -0.313852  1.41337   1.76256 
C -1.22049   0.559847  2.37537 
C -2.68285   0.986142  2.44498 
O -3.24218  1.17299  1.19576
C -4.56384  1.67104  1.24421
H  4.30499 -3.53417 -1.92237
H  4.76946 -1.93223 -1.81369
H  4.65663 -2.55026 -3.47693
H  2.79268  -1.11252  -0.716119
H  2.26036  -2.74482  -0.774644
H  1.13263 -0.52942 -2.42927
H  0.344546 -2.09739  -2.35678 
H -1.09023   0.796747 -0.437575
H  0.446232  1.04335  -1.21492 
H  0.735753 -0.286764  1.33428 
H 1.49906  1.1103   0.861555
H -1.19036  -0.369991  1.82191 
H -0.862458  0.253181  3.42129 
H -3.14933   0.059848  2.86769 
H -2.85298  1.89679  3.02605
H -4.68403  2.77481  1.46725
H -4.89779   1.47758   0.268511
H -5.23012  1.13762  1.96254
