30

C -1.24211 -1.67124  3.90662
O -0.36553 -1.40032  2.90683
C -0.310197 -2.33383   1.85651 
C -0.0878327 -1.56175    0.643775 
O -1.15101  -0.745152  0.359264
C -1.77756  -0.844104 -0.91111 
C -0.981739 -0.253832 -2.01343 
O -1.12844  1.13803 -2.02984
C -0.38167  1.98111 -1.14597
C  1.13291  2.16792 -1.37155
O  1.75667   0.965709 -0.859225
C  3.21293   0.804106 -1.13487 
H -2.33449 -1.76204  3.62139
H -1.12214  -0.939384  4.59847 
H -0.979771 -2.66717   4.3317  
H  0.471902 -3.09641   2.10306 
H -1.31088 -2.77517  1.77633
H  0.79929  -0.894851  0.724809
H  0.0313293 -2.27623   -0.149668 
H -2.74532  -0.404843 -0.890209
H -1.94245 -1.88467 -1.17117
H  0.0562001 -0.526437  -1.84593  
H -1.45373  -0.641911 -2.97912 
H -0.779114  3.03963  -1.31271 
H -0.559959   1.82138   -0.0480826
H  1.40475  2.3913  -2.4532 
H  1.54448   2.97731  -0.762419
H  3.43808  -0.169738 -1.56302 
H  3.50642  1.52278 -1.9008 
H  3.76616   1.08929  -0.229194
