30

C -0.360216  2.16166  -2.72128 
O -1.38882  1.39919 -2.16726
C -1.43595   1.36707  -0.744727
C -2.6743    0.461793 -0.394351
O -2.84808   0.167087  0.992274
C -2.13465  -0.882801  1.53625 
C -0.877641 -0.569332  2.31841 
O  0.294212 -0.290097  1.62568 
C  0.883594 -1.36949   0.928106
C  2.06865   -0.8516     0.0824378
O  2.98523   -1.91849    0.0335374
C  4.03071  -1.49936  -0.857304
H  0.59923  1.62309 -2.76763
H -0.362187  3.16047  -2.16701 
H -0.625609  2.39361  -3.81671 
H -1.50471   2.40708  -0.441381
H -0.569031  0.973196 -0.205465
H -3.52686   0.931192 -0.804199
H -2.52353  -0.494092 -0.872269
H -1.92252  -1.6021    0.783949
H -2.79626 -1.31686  2.24376
H -1.02771   0.217086  3.01786 
H -0.70001 -1.43533  2.94327
H  1.212   -2.1653   1.70101
H  0.181607 -1.829     0.233805
H  1.70822  -0.552352 -0.885488
H  2.63303    -0.00710122  0.59009   
H  4.77321  -2.31908  -0.808143
H  3.63979 -1.41547 -1.86455
H  4.46854  -0.543836 -0.516037
