30

C -2.1896  -3.99829  4.35434
O -2.26117 -3.22896  3.15479
C -0.926232 -3.07915   2.64071 
C -1.07001 -2.08248  1.49408
O  0.109878 -1.47082   1.02155 
C -0.128622 -0.885163 -0.245351
C  1.1313   -0.147012 -0.854321
O  0.83718   0.789506 -1.91231 
C  0.192025  1.93694  -1.42543 
C -0.0579655  3.05456   -2.40591  
O  1.06993  3.9093  -2.35331
C  2.15875  3.43768 -3.19763
H -3.06985 -3.85697  5.0033 
H -1.34256 -3.68077  4.9281 
H -2.0331  -5.12991  4.18923
H -0.364631 -2.55822   3.42516 
H -0.522916 -4.03824   2.32771 
H -1.68341  -2.53623   0.724852
H -1.6771  -1.23349  1.88059
H -0.929373  -0.0397235 -0.11231  
H -0.633329 -1.63431  -0.928295
H 1.62043   0.214654  0.0177795
H  1.6851  -0.91706 -1.34621
H -0.815169  1.63472  -1.04558 
H  0.668878  2.33201  -0.549868
H -0.310585  2.66174  -3.44418 
H -0.861468  3.63208  -1.90971 
H  1.87012  3.67179 -4.24224
H  3.0388   3.92638 -2.8881 
H  2.34996  2.31852 -3.10005
