30

C -3.11467   0.623645 -1.34453 
O -3.87822  -0.402238 -0.760147
C -4.09097  -0.437838  0.628854
C -3.08559 -1.38022  1.24294
O -1.87642  -0.734922  1.58491 
C -0.691467 -1.31269   1.05453 
C  0.537726 -0.458693  1.42654 
O  1.78099  -0.969787  0.853735
C  2.06013  -0.417355 -0.402764
C  3.32281   0.419374 -0.357311
O  3.32527  1.11479 -1.61697
C  4.42562  1.98161 -1.70111
H -2.17667   0.597251 -0.834071
H -3.64146  1.56433 -1.23267
H -3.12128   0.465841 -2.40511 
H -5.11972  -0.717086  0.904858
H -3.93591   0.583958  1.04367 
H -3.3761  -1.76123  2.20858
H -2.94078  -2.23718   0.488161
H -0.660554   -1.32955    -0.00179241
H -0.670415 -2.41024   1.35898 
H 0.342292 0.575432 1.16362 
H  0.615933 -0.59296   2.49133 
H  2.23535 -1.22648 -1.10412
H  1.22833   0.256638 -0.736377
H 3.16371  1.0521   0.565611
H  4.25504  -0.169852 -0.210812
H  4.4825    2.69485  -0.877477
H  5.32498  1.38664 -1.80478
H  4.37392  2.4635  -2.70506
