30

C -2.58137   2.16372   0.958049
O -2.32988  3.04708 -0.10121
C -1.27142  2.80392 -1.07297
C -1.26067  1.64075 -2.00334
O -1.07925  0.40531 -1.41755
C  0.0210407 -0.320497  -1.91426  
C  0.145667 -1.72361  -1.3765  
O  0.415288  -1.56246   -0.0118809
C  0.602141 -2.75522   0.807014
C  0.93568 -2.28897  2.24417
O  2.29149 -2.14198  2.43192
C  2.87501 -1.14456  1.68731
H -3.35907  2.52831  1.58041
H -1.78393  2.08295  1.63952
H -2.84742  1.16851  0.49227
H -0.38888   2.9353   -0.470154
H -1.29927  3.64193 -1.69522
H -2.20343  1.69787 -2.5435 
H -0.447674  1.77733  -2.67746 
H  0.941151  0.245071 -1.59226 
H -0.0456479 -0.340542  -3.01596  
H -0.799161 -2.34358  -1.4855  
H  0.963452 -2.30498  -1.80558 
H -0.305787 -3.38139   0.714956
H  1.37719  -3.42201   0.505459
H  0.454221 -1.40956   2.59573 
H  0.628471 -3.12548   2.93751 
H  2.95828  -1.37468   0.618057
H  2.25039  -0.279437  1.76253 
H  3.92175  -0.992994  1.9324  
