30

C -2.93055  3.3302  -1.30312
O -3.50217  2.01305 -1.13427
C -2.98398   0.932169 -1.8555  
C -1.50663   0.657531 -1.53244 
O -1.10307  -0.592977 -2.05244 
C  0.16354 -1.01965 -1.8001 
C  0.378906 -1.77946  -0.496387
O  0.622525 -0.871867  0.502702
C  1.9176   -0.453829  0.770167
C  2.28824  -0.413507  2.27524 
O  2.55532 -1.7801   2.74153
C  2.89748 -1.92139  4.1364 
H -2.88499  3.51266 -2.41831
H -1.91883   3.35818  -0.832877
H -3.68211   3.98076  -0.853635
H -3.055    1.19554 -2.97794
H -3.53231    0.0282224 -1.64685  
H -0.954712  1.50995  -2.01556 
H -1.35716   0.73352  -0.448094
H  0.848507 -0.180025 -2.06658 
H  0.469057 -1.67578  -2.61519 
H -0.567743 -2.3003   -0.343524
H  1.15323  -2.52634  -0.674137
H  2.64871  -1.09181   0.227783
H 1.91701  0.633882 0.557955
H 3.18535  0.172477 2.43535 
H 1.39527   0.0219987 2.83594  
H  1.9817  -1.98619  4.74576
H  3.25689 -2.94507  4.19627
H  3.58143 -1.18491  4.47464
