30

C 2.59334 1.2682  3.04756
O 2.12957 2.54768 2.7358 
C 2.14786 2.84831 1.36989
C 1.02922  2.14117  0.604494
O 1.21498  0.759493 0.445678
C  0.209233  -0.0530529  0.983791 
C -1.08656   -0.0958491  0.133971 
O -1.23302  -1.44806  -0.388878
C -0.653969 -1.75267  -1.67281 
C -1.79151 -1.7671  -2.72815
O -2.41031 -3.04152 -2.66695
C -3.29295 -3.07543 -1.56081
H 3.6082  1.04674 2.75352
H 1.97175 0.48587 2.56333
H 2.61953 1.07573 4.12659
H 3.11535 2.5661  0.81831
H 1.89161 3.96689 1.24552
H 0.0599178 2.29601   1.15336  
H  1.06333   2.63165  -0.350561
H 0.0167838 0.234959  2.0334   
H  0.547538 -1.08847   0.971758
H -2.01493   0.159477  0.720649
H -1.14857   0.693003 -0.671873
H  0.0552444 -1.09222   -1.98488  
H -0.194333 -2.7351   -1.61625 
H -2.50706  -0.966774 -2.65529 
H -1.26344 -1.71496 -3.69454
H -3.80876 -2.14184 -1.41131
H -4.01764 -3.85839 -1.66612
H -2.67469  -3.25001  -0.641661
