30

C  2.45492  -3.58051  -0.952031
O  2.13365 -2.39464 -1.50847
C  2.12222  -1.33406  -0.672273
C  2.04537   -0.0113795 -1.44024  
O  2.15587   0.981489 -0.434779
C  0.919273   1.54962   -0.0386028
C -0.0532379  0.629156   0.664286 
O -0.906612 -0.136286 -0.285621
C -2.29517   0.210386 -0.134142
C -3.03284  -0.263715  1.09806 
O -2.99688  0.72258  2.09869
C -3.66038  1.90381  1.91467
H  3.56376 -3.67561 -0.8046 
H  2.2863  -4.49764 -1.55019
H  1.9315    -3.63163    0.0706049
H  3.09735  -1.146    -0.203215
H  1.33926  -1.38494   0.171335
H  2.86468   0.200537 -2.07519 
H  1.1391    0.156946 -2.02391 
H  0.380119  2.20683  -0.773967
H 1.2281   2.34222  0.651488
H  0.511305 -0.169344  1.22905 
H -0.594975  1.17783   1.46325 
H -2.45442   1.26073  -0.304689
H -2.7582   -0.353758 -0.960216
H -4.04167  -0.496609  0.807023
H -2.5298  -1.20789  1.44657
H -3.29468  2.52123  1.0985 
H -4.78918  1.8482   1.54614
H -3.62893  2.40289  2.84727
