30

C  1.87671 -1.12772 -3.80098
O  0.930715  -0.0850921 -3.68434  
C -0.447954 -0.351952 -3.32308 
C -0.627303 -0.368261 -1.79815 
O -0.715165 -1.68614  -1.37497 
C -1.23458  -1.87249  -0.112192
C -0.268041 -1.87485   0.98055 
O  0.014278 -0.462209  1.26084 
C  0.495969 -0.173531  2.52612 
C 0.45066 1.28183 2.84303
O -0.815479  1.75141   3.16385 
C -0.908412  3.03903   3.66139 
H  2.90103  -0.792065 -3.72636 
H  1.88127 -1.63802 -4.70591
H  1.61471 -1.80158 -2.94785
H -0.916527 -1.28927  -3.71042 
H -1.09605  0.50767 -3.71702
H  0.0950606  0.250618  -1.28671  
H -1.52726   0.237418 -1.49328 
H -1.66053  -2.86872  -0.060892
H -2.00471  -1.16323   0.192204
H -0.837083 -2.27947   1.84818 
H  0.594117 -2.53759   0.849963
H -0.132662 -0.712716  3.27496 
H  1.52983 -0.50608  2.67111
H 1.1098  1.33655 3.67139
H 0.956479 1.81753  2.00675 
H -0.593273  3.14638   4.70381 
H -0.271823  3.67192   3.08126 
H -1.94247  3.26997  3.59215
