30

C -3.90269   0.518728 -3.66589 
O -2.8167   1.45484 -3.6726 
C -1.9589   1.51804 -2.59041
C -1.43207   0.422101 -1.65694 
O -1.14749   0.983044 -0.409521
C -0.4616    0.166757  0.472513
C 0.337606 0.971134 1.59205 
O 1.09214   0.0594551 2.29617  
C  2.23982  -0.286463  1.52668 
C  2.98603 -1.39526  2.19667
O  2.37477 -2.64335  1.72834
C  1.61557 -3.40863  2.63698
H -4.48761   0.432764 -2.77474 
H -3.63518  -0.485887 -3.99015 
H -4.57079  0.90525 -4.41419
H -2.39508  2.29334 -1.90396
H -1.09867  2.08653 -2.83402
H -2.08636  -0.474107 -1.61326 
H -0.520942   0.0437516 -2.06542  
H  0.288227  -0.456603  -0.0298986
H -1.09044  -0.625943  0.928368
H 0.958831 1.83149  1.17969 
H -0.300687  1.63421   2.29345 
H  1.94989  -0.520482  0.514151
H 2.93043  0.537512 1.46245 
H  4.07761 -1.37568  1.98047
H  3.0094  -1.16216  3.24281
H  1.57408 -4.42804  2.26554
H  2.00985 -3.43195  3.62402
H  0.651522 -2.94402   2.76102 
