30

C -0.918706  2.52019  -2.69318 
O -1.40894  1.4029  -3.40926
C -1.19496   0.165293 -2.78072 
C -2.27852    0.0456253 -1.67101  
O -1.64501    0.0876474 -0.402431 
C -1.91071  -0.980917  0.409959
C -1.03213 -1.08692  1.66187
O  0.263085 -1.45839   1.32869 
C  1.07224  -0.358537  0.809625
C 1.90887  0.191544 1.99629 
O  2.97833  -0.561742  2.24032 
C  2.8571  -1.80896  2.88711
H  0.160319  2.5007   -2.59579 
H -1.22529  2.55333 -1.70155
H -1.2668   3.4927  -3.06183
H -0.163253   0.0180772 -2.46591  
H -1.37013  -0.647417 -3.50345 
H -3.06927   0.819401 -1.72514 
H -2.87157  -0.845741 -1.8528  
H -1.85198  -1.90502  -0.210806
H -3.00504  -1.04136   0.587856
H -1.17561  -0.154506  2.216   
H -1.449   -1.83994  2.32052
H  1.8277    -0.717757   0.0620313
H 0.530056 0.484028 0.49313 
H 2.38754 1.17182 1.69187
H 1.35377  0.395967 2.85964 
H  2.08605 -1.81015  3.66311
H  2.69001 -2.63704  2.1478 
H  3.77775 -2.04478  3.34888
