30

C -3.88673    0.0624517  0.0720892
O -2.69833   0.462662 -0.579647
C -2.74849   0.620846 -1.92933 
C -1.36546   0.851416 -2.39109 
O -0.595239 -0.248382 -2.10252 
C  0.866806  -0.0456154 -2.21883  
C  1.76413  -0.922326 -1.25394 
O  1.95966   -0.20921   -0.0705295
C  1.44671  -0.801171  1.09009 
C  2.2078  -0.24363  2.27502
O  1.36005   -0.0814461  3.35375  
C  0.69596 -1.17832  3.908  
H -4.24734  -0.941895 -0.173511
H -4.62850e+00  8.26021e-01 -3.69011e-03
H -3.6913     0.0854545  1.13085  
H -3.35829  1.36542 -2.3665 
H -3.17778  -0.251498 -2.36854 
H -1.3855    0.999115 -3.52519 
H -1.02933  1.85608 -2.00589
H  1.09125  1.01835 -2.08762
H  1.10382  -0.331108 -3.21336 
H  1.38761 -2.00858 -1.11346
H  2.85807  -0.857492 -1.61413 
H  0.422311 -0.621216  1.13599 
H  1.5803   -1.85687   0.888325
H  3.11455  -0.873986  2.54501 
H 2.68188  0.708525 2.03242 
H  0.403962 -0.841714  4.9299  
H -0.193653 -1.51695   3.38688 
H  1.30348 -2.06358  4.02935
