30

C -1.17988  1.35873 -2.19386
O -0.0612436  0.522771  -2.09645  
C -0.112497 -0.534663 -2.98151 
C  1.14292 -1.40798 -2.7056 
O  0.912083 -2.06898  -1.45994 
C  1.84898  -1.84183  -0.371547
C  1.5239   -0.730995  0.691065
O  0.546864 -0.994842  1.62036 
C 0.0409995 0.127635  2.43136  
C -1.41615   0.040153  2.25327 
O -2.1667   1.10456  2.90982
C -2.07534  2.35882  2.32979
H -0.783191  2.27273  -1.73156 
H -1.98182   0.975903 -1.55353 
H -1.56606  1.46615 -3.16877
H -0.115946 -0.221713 -4.05666 
H -1.01469 -1.22384 -2.86198
H  1.31022 -2.06394 -3.62924
H  2.09975  -0.767595 -2.62065 
H  2.81838  -1.43711  -0.864227
H  1.98922  -2.82053   0.177794
H  2.50919 -0.51305  1.13141
H 1.15834   0.0300903 0.118334 
H 0.288374 0.173473 3.52513 
H 0.399527 1.07639  1.96282 
H -1.77179   -0.0740409  1.20026  
H -1.75866  -0.932649  2.73876 
H -1.92911  2.25328  1.23623
H -2.9549   2.89024  2.58046
H -1.28044  2.97001  2.68611
