30

C -4.56985  -0.771577  2.68839 
O -4.36269  -0.822216  1.32255 
C -3.28462  -1.66002   0.839781
C -2.75118  -1.12635  -0.484513
O -1.4972   -1.86858  -0.665049
C -0.255169 -1.18076  -0.378654
C  0.366723 -0.429906 -1.58772 
O  1.63623    0.0581381 -1.28821  
C  1.71774   1.23638  -0.564158
C  3.142     1.87059  -0.828612
O  4.29271   1.2734   -0.172953
C 4.35022 1.55088 1.22265
H -5.22135    0.0825763  2.90582  
H -3.62871  -0.618557  3.17301 
H -5.01626 -1.69788  3.10363
H -2.38603 -1.48941  1.47388
H -3.61877  -2.65631   0.801245
H -3.28526 -1.36166 -1.45073
H -2.4771   -0.122292 -0.372358
H  0.484102 -1.98145  -0.133267
H -0.380668 -0.336861  0.382195
H  0.470617 -1.13515  -2.38538 
H -0.359074  0.367536 -1.78229 
H  0.878796  1.92408  -0.855737
H 1.75809  1.10464  0.518372
H  3.13902  1.66254 -1.83582
H  3.10285   2.9409   -0.641482
H 5.2697   0.990806 1.56574 
H 4.45907 2.6511  1.54434
H 3.52124 1.08092 1.74355
