30

C  2.00199  2.39323 -1.6191 
O  0.832254  2.21835  -0.821592
C 0.862276 2.76094  0.525802
C 1.3633  1.69823 1.4803 
O 0.287823 0.858024 1.80754 
C  0.572064 -0.383371  2.46082 
C  0.556092 -1.64647   1.55052 
O -0.62036  -1.85921   0.884902
C -0.742341 -1.05708  -0.282653
C -2.07112  -1.3764   -0.929178
O -1.92408 -2.66603 -1.50773
C -2.31351 -2.72894 -2.83906
H  2.21607  3.47793 -1.66836
H  1.8856   1.90461 -2.58584
H  2.94773  2.08979 -1.25227
H -0.143927  3.08359   0.917074
H 1.37918  3.69802  0.588096
H 2.18537 1.10655 1.00005
H 1.64236 2.27662 2.37652
H -0.25239  -0.486874  3.17559 
H  1.50844  -0.422106  2.90268 
H  1.40334  -1.55156   0.887599
H  0.720322 -2.54909   2.24727 
H -0.830744   0.0345786 -0.0253172
H  0.11641 -1.22359 -1.0117 
H -2.92906  -1.33753  -0.189513
H -2.35705 -0.68034 -1.79212
H -1.81524 -2.06221 -3.55091
H -1.92909 -3.66631 -3.21814
H -3.36063 -2.90079 -2.89574
