30

C -4.99585 -1.31187 -2.92049
O -3.66855 -1.67442 -2.89451
C -3.10303 -1.94801 -1.62315
C -2.77453  -0.68894  -0.810475
O -1.41396  -0.389967 -1.0978  
C -0.506555   -0.542548    0.00612919
C  0.853677   0.0636897 -0.336985 
O  1.7367    -0.0226903  0.80698  
C 2.84629  0.792144 0.717653
C 3.86017  0.773434 1.89042 
O 3.60892 1.72983 2.90974
C 2.54178 1.423   3.72116
H -5.68964 -1.74491 -2.15485
H -5.42224 -1.6488  -3.8674 
H -4.99469  -0.155842 -2.78691 
H -2.26991 -2.65983 -1.65645
H -3.90244 -2.58509 -1.11952
H -3.4468     0.0468337 -1.21639  
H -2.83807  -0.779995  0.307215
H -0.349738 -1.60305   0.190972
H -1.09811   -0.0927273  0.864049 
H  1.41405  -0.496046 -1.11604 
H  0.714696  1.15343  -0.618643
H  3.4066    0.564976 -0.258246
H 2.57793  1.85081  0.527404
H  3.98397  -0.269774  2.25587 
H 4.81196 1.06506 1.41093
H 2.13368 2.24762 4.27674
H 1.73393 1.04384 3.07683
H 2.79255  0.626963 4.39029 
