30

C -4.07486 -2.33744 -3.61598
O -3.68953 -1.52012 -2.4745 
C -2.89043  -0.470733 -2.73893 
C -2.52372  0.17386 -1.51065
O -1.66716  -0.587131 -0.779698
C -0.703051  0.13949  -0.073343
C  0.463229 -0.75072   0.38559 
O 1.47543   0.0932888 1.03502  
C  2.55237  -0.549092  1.52733 
C 2.91528  0.190217 2.77975 
O 3.46788 1.43104 2.42233
C 3.50186 2.35809 3.44011
H -3.24489 -2.98917 -3.95582
H -4.48385 -1.87314 -4.49197
H -4.93758 -2.85424 -3.19916
H -3.38318   0.237291 -3.39869 
H -2.01814  -0.727204 -3.15423 
H -2.06988  1.09341 -1.81869
H -3.47467   0.461239 -0.917553
H -1.18901   0.779806  0.76084 
H -0.184612  0.854101 -0.785617
H  0.189771 -1.50954   1.07257 
H  0.798709 -1.25087  -0.514307
H  2.40954 -1.62923  1.86853
H  3.45341  -0.409569  0.79439 
H 2.02846  0.228783 3.42532 
H  3.6652   -0.404423  3.36941 
H 4.32847 2.22603 4.1129 
H 3.63547 3.33151 3.04836
H 2.59066 2.28362 4.05762
