30

C  4.07909   0.342666 -1.88825 
O  4.23781   0.530697 -0.465824
C 3.12433  0.186546 0.270509
C 1.82818  0.939164 0.240493
O  1.10013   0.607884 -0.934823
C -0.20691  1.13617 -1.06358
C -1.34025   0.198384 -0.581934
O -1.11916  -0.288447  0.717653
C -1.61023 -1.62635  1.03287
C -2.90712 -1.65117  1.86399
O -3.93717  -0.907533  1.29602 
C -4.37786   -1.22571    0.0146166
H  3.21967   0.905987 -2.29808 
H  3.94563  -0.732993 -2.16075 
H  4.92088   0.850697 -2.22378 
H 3.42588  0.333674 1.32288 
H  2.8609   -0.89622   0.295861
H 1.31283  0.669533 1.16553 
H 1.92866  2.04013  0.345117
H -0.417086  1.49699  -2.10328 
H -0.352153  2.09094  -0.463321
H -2.24664   0.835566 -0.676011
H -1.42709  -0.631214 -1.27487 
H -1.92348   -2.11649    0.0610701
H -0.835283 -2.1269    1.55744 
H -3.2077  -2.69123  2.11861
H -2.81525 -1.07804  2.84771
H -5.22906  -0.564686 -0.247461
H -3.66127  -1.21144  -0.913308
H -4.6538    -2.2577     0.0513865
