30

C -1.41698  1.47977 -2.38322
O -0.362375  0.705143 -1.88338 
C  0.0375143 -0.283199  -2.79118  
C  1.1628  -1.08751 -2.35097
O  0.758143 -1.81847  -1.2143  
C  1.69925  -2.11286  -0.217365
C  1.84026  -1.02581   0.945683
O  0.74978  -0.870888  1.83401 
C -0.417535 -0.310505  1.24275 
C -1.56409 -0.13285  2.22336
O -1.54445  1.11147  2.79953
C -1.92712  2.30871  2.22039
H -1.38807  2.35156 -1.79218
H -2.3031    0.881856 -2.19454 
H -1.29931  1.82984 -3.41306
H  0.247557  0.164534 -3.77376 
H -0.786743 -0.945209 -2.74236 
H  1.33268 -1.7759  -3.1125 
H  2.13985  -0.593991 -2.09081 
H  2.68028  -2.29102  -0.635023
H  1.40173  -3.0294    0.213095
H  2.72963 -1.3491   1.50983
H  2.04784   -0.0420892  0.539203 
H -0.296249  0.604622  0.724179
H -0.807339 -1.07234   0.526753
H -2.51027 -0.26628  1.75635
H -1.52391  -0.930677  2.96669 
H -2.40604  2.92994  3.00446
H -0.958292  2.82584   1.87272 
H -2.48264  2.17812  1.3052 
