30

C 1.66833  1.39654  0.820536
O 2.17489 0.5803  1.79175
C  2.79419  -0.668362  1.46894 
C  1.97681  -1.39517   0.458274
O  2.28387  -1.05053  -0.816132
C  1.24253 -1.54568 -1.68761
C  0.141475 -0.579824 -1.77992 
O -0.783298 -0.46044  -0.6869  
C -1.67092   0.663955 -0.885732
C -2.53487  0.84223  0.27959
O -3.78672    0.218417   0.0808166
C -4.5115     0.0725951  1.24403  
H 2.36813    1.59921    0.00451276
H 1.4844  2.32611 1.28056
H 0.821682 0.935157 0.370241
H  3.7086   -0.377778  0.897151
H  3.01317 -1.18209  2.39828
H  2.14863  -2.44576   0.636147
H  0.920582 -1.32939   0.605608
H  0.91906 -2.52029 -1.37495
H  1.79233 -1.75355 -2.62313
H  0.51695   0.478525 -2.09081 
H -0.544922 -0.892631 -2.64768 
H -1.05357  1.55974 -1.15084
H -2.38021   0.530913 -1.68102 
H -1.89061   0.381513  1.12731 
H -2.67762   1.88158   0.562045
H -5.50152  -0.257374  0.969579
H -4.0424   -0.490103  2.04505 
H -4.67969  1.06871  1.59108
