30

C -1.94342 -1.91105 -2.90502
O -3.00166 -1.82458 -2.06727
C -3.52757  -0.691891 -1.53446 
C -2.76819   0.03103  -0.385601
O -1.44667   0.300794 -0.788611
C -0.683872  0.797485  0.252088
C -0.229215 -0.406715  1.07701 
O  0.908223 -0.211893  1.88014 
C  2.09534 -1.00781  1.52461
C  3.26415  -0.146088  1.65447 
O 3.18611  0.982262 0.675041
C 2.89359 2.24604 1.13918
H -2.25012 -1.79177 -3.91062
H -1.43092 -2.8573  -2.99719
H -1.1878  -1.15662 -2.56778
H -4.55167  -0.864835 -1.09714 
H -3.76623   -0.0268466 -2.38216  
H -3.30322   0.976191 -0.181992
H -2.74037  -0.545044  0.49608 
H -1.14826   1.55798   0.925689
H  0.260009  1.29986  -0.202842
H -1.06925  -0.620407  1.75596 
H -0.117053 -1.31567   0.540026
H  2.12682 -1.97401  2.10524
H  2.04602  -1.22252   0.475521
H 3.43737  0.268059 2.68192 
H  4.14688  -0.757783  1.40895 
H 1.79412 2.29085 1.1036 
H 3.25035 2.42696 2.1399 
H 3.34118  2.99261  0.490097
