30

C -2.02824  2.96041 -1.76012
O -2.47176  1.84473 -2.42809
C -2.35559   0.609166 -1.80751 
C -0.933535  0.239397 -2.03915 
O -0.196925  0.620781 -0.904392
C  1.20953  0.50966 -1.059  
C  1.83795  -0.854692 -0.629155
O  1.73644  -1.20389   0.740182
C  1.00402 -2.3688   1.08682
C  0.990889 -2.39132   2.68131 
O  0.0239563 -1.67039    3.36045  
C  0.0627318 -0.277728   3.08849  
H -2.77656   3.2747   -0.954551
H -1.85499  3.83219 -2.45678
H -1.0907   2.77321 -1.16307
H -2.91327 -0.14177 -2.31513
H -2.58155   0.483789 -0.705603
H -0.874974 -0.855333 -2.2137  
H -0.546344  0.760225 -2.95979 
H  1.63254   1.32244  -0.331794
H  1.55602   0.792618 -2.07156 
H  1.37372 -1.63432 -1.31983
H  2.9816   -0.800707 -0.793412
H  0.104625 -2.22037   0.577358
H  1.46154  -3.22938   0.733134
H  0.781041 -3.41012   2.94364 
H  2.00067 -2.09776  2.87805
H 1.11217  0.010941 3.24341 
H -0.290938 -0.136772  2.00581 
H -0.624197  0.264166  3.74305 
