30

C -7.61621e-04  3.55286e+00 -1.03834e+00
O  0.431401  2.43288  -0.377168
C 0.560559 2.54341  0.956944
C 1.1343  1.26525 1.44667
O -0.0124365  0.38793    1.43691  
C  0.326036 -0.945249  1.77809 
C  1.21464  -1.81628   0.832834
O  0.688399 -2.31043  -0.324822
C  0.291085 -1.36117  -1.31606 
C -1.19363  -0.965553 -1.19411 
O -2.12353 -1.94798 -1.47283
C -2.35347  -2.71034  -0.287315
H  0.69017   4.36363  -0.984644
H -0.975288  3.98649  -0.69185 
H -0.0941583  3.26852   -2.06959  
H -0.317248  2.66179   1.62513 
H 1.22883 3.3387  1.20549
H 1.98976  0.949779 0.785873
H 1.44544 1.33865 2.48995
H -0.664011 -1.48022   1.74231 
H  0.803395 -0.788108  2.80372 
H  2.24344  -1.40068   0.618928
H  1.4202  -2.68312  1.48028
H  0.904722 -0.446008 -1.24557 
H  0.433504 -1.74027  -2.29586 
H -1.47323  -0.614161 -0.223052
H -1.36416 -0.18648 -1.87986
H -2.24315  -2.14059   0.679014
H -3.37066  -3.03737  -0.299075
H -1.7709  -3.61942 -0.2656 
