30

C -1.1331   2.89058 -2.46151
O -2.29178  2.03193 -2.12226
C -2.44189   0.710705 -2.54429 
C -1.91959  -0.294123 -1.51245 
O -0.531321 -0.240121 -1.26889 
C -0.0764131 -1.11661   -0.291574 
C  1.42566  -0.999664 -0.206916
O 1.92155  0.150373 0.517579
C 1.46188  0.391701 1.92518 
C  1.56287  -0.810541  2.80279 
O  0.557737 -1.67271   2.32424 
C  0.33083 -2.83997  3.1724 
H -0.226115  2.62544  -1.94265 
H -1.52348  3.85641 -2.14634
H -0.942783  2.85738  -3.51875 
H -1.91528   0.619922 -3.45744 
H -3.53821   0.525189 -2.64351 
H -2.46019   -0.0922762 -0.491565 
H -2.07041 -1.32066 -1.87555
H -0.469133 -2.13472  -0.454175
H -0.468384 -0.739707  0.68936 
H  1.93424  -1.87747   0.111979
H  1.83724  -0.850129 -1.18462 
H 2.0751  1.19346 2.32332
H 0.40088  0.729078 1.782   
H  2.5724  -1.26463  2.82109
H  1.45834  -0.563648  3.81799 
H -0.287306 -3.48269   2.60094 
H  1.21375 -3.3397   3.50227
H -0.218179 -2.63222   4.06407 
