30

C  0.816365 -3.61587  -4.44939 
O  1.87568 -2.75482 -4.02346
C  1.68328 -2.43476 -2.66933
C  0.52695 -1.59151 -2.17909
O  0.661791 -1.23018  -0.804316
C -0.38403  -0.445193 -0.317514
C  0.0120098  -0.00563825  1.10629   
O -1.03723   0.595571  1.86983 
C -1.54105  1.87903  1.433  
C -2.14283  2.48971  2.62939
O -1.10199  3.05145  3.3616 
C -0.586627  2.35386   4.46335 
H  0.772746 -4.58216  -3.8358  
H  1.02106 -3.92644 -5.4496 
H -0.206049 -3.08775  -4.36797 
H  2.5886  -1.87618 -2.42159
H  1.87203 -3.41273 -2.1692 
H  0.510025 -0.763958 -2.9572  
H -0.448919 -2.09567  -2.38762 
H -1.31015  -1.03833  -0.365097
H -0.525291  0.373715 -1.01424 
H  0.408036 -0.887601  1.62099 
H 0.748753 0.731075 1.06938 
H -0.731074  2.52882   1.10785 
H -2.31051   1.74207   0.596982
H -2.83856  3.35505  2.35127
H -2.76492  1.85145  3.22044
H -1.15001  2.49136  5.41809
H -0.606126  1.26482   4.17949 
H 0.409174 2.77114  4.60667 
