30

C  4.41495  -0.253396  1.80062 
O 3.26188  0.315767 1.24342 
C  2.68535  -0.416069  0.125554
C  1.91096  -1.57698   0.698293
O  0.466376 -1.40593   0.371479
C -0.51813 -2.15532  1.04013
C -1.58215 -1.14405  1.56819
O -2.45081  -0.569491  0.626794
C -1.8261     0.0904598 -0.489891 
C -2.83302   0.911024 -1.27002 
O -2.07907  1.6438  -2.26916
C -2.81166  2.59818 -2.99484
H 5.05472  0.488579 2.26408 
H  5.07049 -0.69906  1.10022
H  4.20107  -0.979147  2.58678 
H  3.5887   -0.677996 -0.510631
H  2.10526   0.256498 -0.426617
H  2.28936  -2.57891   0.344726
H  1.96653 -1.55137  1.77275
H -0.19564 -2.79725  1.86468
H -1.00527  -2.80973   0.323124
H -2.11353 -1.73947  2.35669
H -0.980882 -0.362697  2.09158 
H -1.05762   0.7405   -0.113736
H -1.28954  -0.607553 -1.08897 
H -3.59178   0.354048 -1.78102 
H -3.28085   1.73741  -0.631154
H -2.06034  3.2793  -3.40311
H -3.25029  2.08085 -3.8726 
H -3.55178  3.05275 -2.32842
