30

C -4.41355   -1.26414    0.0859436
O -3.30864  -1.80638  -0.745263
C -2.18635 -1.00285 -1.09094
C -1.21683   -0.906416   0.0112933
O -1.7016     0.0676993  0.911541 
C -0.916043  0.447324  1.94009 
C 0.165312 1.49334  1.7127  
O 1.31336  0.959029 1.1243  
C  1.53037  1.29533 -0.18523
C  2.85703   0.838995 -0.647683
O  2.79779  -0.594367 -0.949322
C  3.87069 -1.1767  -1.67248
H -3.9205  -0.82829  1.01418
H -4.97438 -2.17259  0.24305
H -4.94132  -0.446588 -0.410272
H -2.50581   -0.0274928 -1.36271  
H -1.69597 -1.50113 -1.89633
H -1.30001  -1.86212   0.514147
H -0.187575 -0.799885 -0.27161 
H -0.363331 -0.44654   2.32528 
H -1.61406   0.782731  2.7425  
H -0.151907  2.4126    1.11511 
H 0.432798 1.83528  2.74571 
H  0.777033  0.925522 -0.86538 
H  1.4857    2.41501  -0.256141
H  3.14289  1.38476 -1.54286
H 3.61916  1.04607  0.067223
H  4.15375 -0.4895  -2.46408
H  4.79793 -1.20236 -1.13379
H  3.70749 -2.19351 -2.00326
