30

C  3.65136  -1.9163   -0.816224
O  2.8038   -0.729772 -0.804219
C  2.69843   -0.0447326  0.405389 
C 2.1054   1.33994  0.142477
O  0.747513  1.18307  -0.312272
C -0.210999  1.93598   0.314888
C -1.58811   1.84196  -0.419389
O -2.21775    0.656209  -0.0942067
C -1.74498  -0.475267 -0.809751
C -2.39166  -1.75313  -0.286553
O -2.06353 -2.09914  1.01585
C -3.01487 -1.51661  1.96135
H  3.65403 -2.32433 -1.81691
H  3.23911   -2.63648   -0.0671312
H  4.70587  -1.72276  -0.513362
H  3.70836   -0.0255008  0.846828 
H  1.97507  -0.525339  1.04939 
H 2.02625 1.92874 1.03467
H  2.63805   1.83758  -0.679929
H 0.0297188 2.99453   0.35507  
H -0.409074  1.65392   1.39372 
H -2.11948     2.66434     0.00850991
H -1.61878  2.0966  -1.51276
H -1.92667  -0.363408 -1.93952 
H -0.658264 -0.65748  -0.554109
H -3.49012  -1.82366  -0.482779
H -2.03096  -2.64407  -0.889822
H -2.65894 -1.52386  2.94985
H -3.03555  -0.458452  1.82813 
H -4.03422 -2.00903  2.02654
