30

C -3.36395   0.557248 -3.36437 
O -2.41213  1.28752 -2.63635
C -2.83218  1.72841 -1.41715
C -2.33921   0.645019 -0.38476 
O -2.01642   1.21512   0.886686
C -1.39047   0.428597  1.81626 
C 0.086994  0.0547965 1.45872  
O  0.2938   -1.24396   0.959135
C  1.67334  -1.81373   0.967929
C  2.64827  -0.980305  0.277809
O  3.89256  -1.68849   0.311734
C  4.46707 -1.88294  1.63322
H -4.10502  1.2788  -3.75783
H -3.88802  -0.167648 -2.7981  
H -2.82287    0.0620179 -4.23872  
H -3.85185  1.88242 -1.36654
H -2.30953  2.69868 -1.16638
H -3.04446  -0.161827 -0.277651
H -1.42468   0.257503 -0.815638
H -2.01584  -0.439445  1.96233 
H -1.46685  0.75246  2.84987
H 0.478828 0.735684 0.631248
H 0.64844  0.336684 2.3271  
H  1.8878  -1.91325  2.06109
H  1.75791  -2.88673   0.531792
H  2.40505  -0.960202 -0.848907
H 2.61942   0.0874226 0.612891 
H  4.47128  -0.937884  2.19873 
H  4.04875 -2.66756  2.32581
H  5.47364 -2.34147  1.40839
