30

C -4.33306   0.298765 -0.363401
O -3.01235   0.60428  -0.881375
C -2.76634   0.112925 -2.14756 
C -1.29442   0.276734 -2.2919  
O -0.426555 -0.729    -1.73284 
C  0.949462 -0.459351 -1.94435 
C  1.69373  -0.97816  -0.694849
O 1.76201   0.0540619 0.316416 
C 0.615966 0.103159 1.15003 
C 0.994343 0.41505  2.63965 
O  1.67784  -0.589602  3.27122 
C  3.02113  -0.900854  2.94042 
H -4.77954  -0.5681   -0.793964
H -5.04581   1.0554   -0.594708
H -4.19031   0.144422  0.779652
H -3.14419   0.780998 -2.90876 
H -3.12396  -0.912765 -2.44513 
H -1.08292   0.464177 -3.39612 
H -0.973435  1.23634  -1.83429 
H  1.11107  0.59762 -2.10442
H  1.14563 -1.00965 -2.86005
H  1.3159   -1.95095  -0.361132
H  2.72909  -1.20665  -0.962833
H -0.149227  0.815679  0.723755
H  0.118773 -0.890345  1.09552 
H 1.66056 1.34834 2.62321
H 0.0170638 0.665408  3.17231  
H  3.2327  -1.74935  3.5074 
H  3.25566 -1.0123   1.882  
H  3.72875   -0.0978858  3.31956  
