30

C -4.02448  1.4568  -2.37765
O -3.13915  1.09553 -1.37264
C -2.47886   2.15942  -0.834289
C -1.77217   1.75018   0.412925
O -0.724896  0.768392  0.217298
C -1.19392  -0.526577  0.524832
C -0.049537 -1.55109   0.49493 
O  0.814551 -1.38824  -0.611301
C  2.21063  -1.00626  -0.418636
C  3.00089  -2.08201   0.317002
O  2.88988 -1.90118  1.75059
C  3.33945  -0.705614  2.2965  
H -4.45799  2.45888 -2.25485
H -4.91359   0.818898 -2.34716 
H -3.57888  1.41231 -3.37623
H -3.22249   2.97925  -0.640019
H -1.76036  2.5978  -1.56686
H -1.24343   2.69436   0.717824
H -2.50864  1.49383  1.20933
H -1.93123  -0.764197 -0.248589
H -1.70228  -0.533692  1.52251 
H  0.439911 -1.2518    1.3933  
H -0.28779  -2.57655   0.632993
H  2.45467  -0.755653 -1.44284 
H  2.30882  -0.121305  0.241468
H  2.50004   -3.03883    0.0161228
H  4.08096   -1.97504    0.0233237
H  3.60688  -0.856427  3.32678 
H  4.19732  -0.305867  1.7478  
H 2.59069  0.114157 2.1563  
