30

C  1.63131  0.5249  -2.41185
O  2.6586   -0.474309 -2.21111 
C  3.2939   -0.763413 -1.08248 
C  2.46572   -1.55983   -0.0492504
O  1.33176  -0.774082  0.25873 
C  1.19726  -0.451214  1.59953 
C 0.107101 0.569317 1.85589 
O -1.21255    0.0844906  1.53253  
C -2.16808  1.12814  1.42974
C -3.5068    0.518353  1.00758 
O -3.88608   0.162668 -0.313214
C -2.99632  -0.749383 -1.01414 
H  1.96755  1.09416 -3.25118
H  1.36583  1.2284  -1.5659 
H  0.752049  -0.0701593 -2.71979  
H  3.81897   0.10007  -0.648434
H  4.12666 -1.39709 -1.42152
H  2.08763  -2.50418  -0.400699
H  3.07032 -1.59663  0.83613
H  2.10717  -0.130579  2.048   
H  0.804078 -1.36265   2.06879 
H 0.147258 0.76805  2.97413 
H 0.371544 1.5088   1.27765 
H -2.41512  1.62145  2.4446 
H -1.91212   1.79994   0.657187
H -3.75719 -0.33633  1.71515
H -4.25872  1.25687  1.25199
H -3.06074  -0.437716 -2.07245 
H -1.95848  -0.731589 -0.637421
H -3.44829 -1.84237 -1.02016
