30

C -2.59576 -1.49994 -2.08369
O -2.45357  -1.97843  -0.757931
C -3.0336   -1.23138   0.204033
C -3.08553   0.158495  0.82672 
O -1.84747  0.62177  1.35067
C -1.00076   0.874113  0.234573
C 0.417609 1.17692  0.707353
O  1.11053   1.572    -0.405736
C  2.55477   1.4967   -0.331207
C  2.89666     0.00689777 -0.558664  
O  3.04475  -0.667927  0.652338
C  2.81882  -2.03554   0.637119
H -1.86326 -2.07028 -2.66774
H -2.45168  -0.418388 -2.13025 
H -3.50281 -1.89592 -2.5304 
H -2.73627 -1.73448  1.15391
H -4.11335  -1.31222   0.292241
H -3.55364   0.911379  0.100642
H -3.79873   -0.0689861  1.61464  
H -1.30472   1.61733  -0.535123
H -0.899879  -0.0943471 -0.295313 
H 0.512664 1.916    1.46077 
H 0.74639  0.267171 1.10685 
H  2.90039  2.30329 -1.14015
H 3.00948  1.87041  0.633668
H  2.04541  -0.350381 -1.08249 
H  3.74578  -0.195769 -1.14433 
H  3.20694  -2.44733  -0.267709
H  3.34027 -2.52356  1.47982
H  1.78198 -2.2892   0.77196
