30

C -1.2649   1.38069 -3.85622
O -0.159978  2.06402  -3.28345 
C -0.450504  2.6889   -2.07099 
C -0.427095  1.69139  -1.02168 
O -1.61533   0.876152 -0.943351
C -1.57642    0.0272204  0.182507 
C -0.657693 -1.1566    0.225872
O  0.716597 -0.687146  0.458074
C  1.10832  -0.505777  1.78063 
C  1.63829 -1.67776  2.49661
O  0.546995 -2.6017    2.79529 
C  0.946163 -3.74648   3.58556 
H -1.64495   0.548314 -3.24623 
H -1.00928   0.898469 -4.76306 
H -2.11529  2.12263 -4.16074
H -1.28138  3.28617 -2.05931
H  0.424848  3.37874  -1.83836 
H  0.492829  1.08649  -1.04434 
H -0.297574   2.18421   -0.0744565
H -2.6162   -0.474621  0.156647
H -1.4358    0.716044  1.02252 
H -0.914008 -1.70129   1.13917 
H -0.702667 -1.70101  -0.677966
H 1.83139  0.391633 1.83182 
H  0.29908  -0.271912  2.42953 
H  2.35729 -2.17438  1.8255 
H  2.23432 -1.49138  3.43509
H  1.75612 -4.33964  3.13167
H  1.36117 -3.38887  4.52372
H  0.0354944 -4.31853    3.87171  
