30

C -3.75326  2.8954  -2.36169
O -2.94312  2.13906 -1.52809
C -1.78935  2.94404 -1.26184
C -0.805535  2.31484  -0.319198
O -0.164854  1.18929  -0.83907 
C 0.664201 0.607565 0.152892
C  1.33644  -0.56786  -0.473317
O  1.99959  -1.31189   0.509812
C  1.97029 -2.70787  0.27794
C  0.735359 -3.3413    0.857786
O  0.793617 -3.55558   2.26932 
C  0.946358 -2.43492   3.05155 
H -4.00811  3.88474 -1.93797
H -4.61846  2.20751 -2.44723
H -3.47446  2.94152 -3.35975
H -2.09445   3.82939  -0.678238
H -1.27112  3.31681 -2.13288
H -0.0703857  3.06577   -0.209418 
H -1.2106    2.14927   0.673087
H 0.0978423 0.113812  0.996214 
H 1.44278  1.28563  0.436914
H  0.549392 -1.17723  -0.800709
H  2.0911   -0.213179 -1.24147 
H  1.94482  -2.93039  -0.806993
H  2.82412  -3.22295   0.707793
H -0.165269 -2.87918   0.659833
H  0.592366 -4.34812   0.408823
H  0.599375 -2.79542   4.07183 
H  2.0071  -2.13696  3.14459
H  0.55232 -1.45987  2.6896 
