30

C  4.02085   3.34112  -0.814178
O  3.37544   2.35273  -0.190052
C  3.94358   1.05538  -0.482139
C 3.12136   0.0532626 0.390705 
O  1.85617    0.0200291 -0.088916 
C  0.83144  -0.399519  0.858087
C -0.46738   -0.493194   0.0300672
O -1.54611  -0.790406  0.905789
C -2.8246   -0.845298  0.374957
C -3.35501  -2.31846   0.192039
O -4.50499  -2.30863  -0.685439
C -5.58809   -1.642     -0.0571767
H  3.44952  3.95341 -1.47786
H  4.9333   3.04283 -1.39757
H  4.27825  4.14116 -0.14357
H  4.98105   1.09825  -0.133873
H  3.87656   0.851026 -1.54788 
H  3.62169  -0.89543   0.431033
H 3.35117  0.471102 1.38994 
H 0.84788  0.308025 1.83104 
H  1.01315 -1.41768  1.21749
H -0.66531   0.501476 -0.377326
H -0.334678 -1.26744  -0.672705
H -3.46108  -0.269348  0.974374
H -2.69736  -0.354012 -0.570125
H -2.57984  -2.92679  -0.215149
H -3.68708 -2.67887  1.17892
H -5.81017  -2.02208   0.971888
H -5.28442   -0.575265   0.0462858
H -6.53331  -1.80833  -0.632752
