30

C  2.3494  -1.86071 -2.61896
O  2.1282   -0.701759 -3.34133 
C  2.46749  0.5426  -2.84748
C  1.72647  1.20633 -1.7402 
O  1.80775   0.425284 -0.453609
C 0.689232 0.471581 0.386529
C -0.469523 -0.360973  0.040267
O -1.58893   0.208738  0.746925
C -2.71751  -0.686819  1.03877 
C -2.57918 -1.3715   2.40763
O -2.78373  -0.487669  3.45924 
C -2.23335   0.794277  3.28608 
H  1.87652 -1.70911 -1.65612
H  3.43647 -1.92714 -2.37962
H  1.97823 -2.62608 -3.25276
H  2.24866  1.23636 -3.72483
H  3.54404   0.680015 -2.67724 
H  2.17299  2.18343 -1.55164
H  0.699751  1.35873  -2.01263 
H 0.286605 1.51083  0.377379
H 1.13765  0.347211 1.33951 
H -0.710108 -0.272533 -1.00601 
H -0.409521 -1.43092   0.238956
H -3.55468   -0.0214783  1.25787  
H -3.10001  -1.28907   0.229912
H -3.40027 -2.13644  2.38623
H -1.5432  -1.75861  2.45196
H -2.37237  1.40998  4.16607
H -1.0969    0.706887  3.27175 
H -2.6184   1.37469  2.38709
